x3                                      
   1.00000000000000     
    10.6822376251000009    0.0000000000000000    0.0000000000000000
    -0.0000014224000000   10.6822347641000004    0.0000000000000000
    -0.0000014224000000   -0.0000085346000000   10.6822347641000004
   N    C 
     1   214
Direct
  0.5502514146267429  0.3835794709722249  0.5502502237377113
  0.9582106496707924  0.7915447619786090  0.1250681480570455
  0.3753964021568850  0.5415551784514940  0.8749257084210502
  0.2916698307902086  0.1250041068601848  0.7911320887779533
  0.2927625947715879  0.6239570971245415  0.6246941882880450
  0.3753964707284330  0.7082593220231179  0.7082213240600773
  0.4618016633956821  0.4584349121080677  0.6250981601948175
  0.5424532301206704  0.5430844956848837  0.7097502439515482
  0.4587199849897455  0.6256504346984202  0.7923166193838913
  0.5419150290261148  0.7087685483873519  0.8754343485144127
  0.6248520735571667  0.7914203659620370  0.1253535471645068
  0.7080322416253044  0.8749299526989356  0.2085090793018380
  0.6248519499758790  0.9586876810703122  0.9580858194086868
  0.7080323849284152  0.0418431272153967  0.0415956519578105
  0.7916356590546358  0.7918736717151228  0.9585394798624358
  0.8748798385063992  0.8750900308627451  0.0417557650736934
  0.7913208155887305  0.9583632928168223  0.1250290610142247
  0.8746516532110959  0.0416499646539015  0.2083159866550597
  0.6248676283291115  0.7918788719749632  0.4584081629972799
  0.7081639688915966  0.8754370000594993  0.5416466590288895
  0.6245820491155136  0.9583627524520894  0.2915951298090862
  0.7085232453703328  0.0412398554637913  0.3753299150941294
  0.7914268316416777  0.7915529790465383  0.2917967925033898
  0.8749225704134832  0.8748516031311389  0.3750836898394633
  0.7916232286910895  0.9582867533237882  0.4581339817013329
  0.8744352938021742  0.0421919091147665  0.5414031298227748
  0.2927618532722377  0.4580274671710921  0.7906227658719657
  0.6251117818216446  0.7922510235630961  0.7918165512958049
  0.5417959610483936  0.7085377754564990  0.5417956133831852
  0.5407257438112135  0.5400969162839804  0.3764465091412657
  0.3749814488147464  0.2083155281476645  0.8745889714443580
  0.2928418110079234  0.2903052440579743  0.6231095006350206
  0.3764468345827622  0.3740601765098810  0.7067623795581640
  0.4569704889480374  0.1261745630693113  0.6231093885151742
  0.5407261960297589  0.2097798726583070  0.7067648413222236
  0.4584646593360546  0.2917977852399357  0.7911491522376249
  0.5417960494053874  0.3751295635108113  0.8752048610156006
  0.2915950318895322  0.4579156792179613  0.1250292002158103
  0.3753295846754329  0.5418565580911712  0.2079064927498909
  0.2917965796628839  0.6247609195941316  0.9582191885997370
  0.3750835500070361  0.7082566957661027  0.0415175671864744
  0.4584083852354852  0.4582017227567228  0.9585450121414326
  0.5416469279117075  0.5414977548281535  0.0421034053516794
  0.4581341032540338  0.6249563183407012  0.1249533638748163
  0.5414034913065596  0.7077689488169918  0.2088576117129899
  0.2928392515121220  0.4564441868354672  0.4569704507099927
  0.3764460535260943  0.5400974841302359  0.5407263360925268
  0.2916702246675960  0.6244653913102393  0.2916703434364565
  0.3749817172145360  0.7079224902808871  0.3749812138282167
  0.4569696958583195  0.4564447118279399  0.2928406894409410
  0.4584642003170349  0.6244824075278971  0.4584631984527198
  0.5472181875909423  0.2017125083367283  0.3683768509891574
  0.7083069902584471  0.8754937674867829  0.8750034377780073
  0.7078378675484406  0.0423941362754316  0.7078377268164985
  0.8754344192537150  0.3752499705115772  0.8754341074433358
  0.6244137973475713  0.4577474353092979  0.1258616536870165
  0.7078380976367153  0.5411718082918606  0.2090600618253941
  0.6251116275399247  0.6251505201238655  0.9589166479419176
  0.7083068644199610  0.7083376835575130  0.0421594266568096
  0.7918162889019370  0.4584462323208262  0.9589168508067398
  0.8750035236529283  0.5416413088502928  0.0421595135579756
  0.7914473008622787  0.6247815974366712  0.1255773461487600
  0.8748321743770077  0.7081662029165460  0.2086000883694755
  0.6251011310821345  0.4584326722985864  0.4618017756399777
  0.7097500184394178  0.5430842062410081  0.5424539642975436
  0.6246935986375076  0.6239554097144950  0.2927621683695111
  0.7082210943856261  0.7082590577454377  0.3753966477500872
  0.7906237341477611  0.4580275756746166  0.2927634659400100
  0.8749255159040029  0.5415551982540268  0.3753971183269783
  0.7923160379790707  0.6256507455795651  0.4587207484940589
  0.8754341725510723  0.7087683957724126  0.5419155229509119
  0.6256231579923701  0.4589573066961138  0.7927179351781372
  0.7088065030282543  0.5421406307386327  0.8757975780286682
  0.6256234458693574  0.6260520890848877  0.6256239281127075
  0.7088062155277484  0.7091317796306195  0.7088061627554457
  0.7927187321150849  0.4589579577519089  0.6256233630300392
  0.8757977944334941  0.5421407248793659  0.7088060121819535
  0.7923160618226637  0.2920548246153574  0.7923160391123132
  0.6244140531580374  0.9591957463520784  0.6244135442181447
  0.8749251969082948  0.2087312515923720  0.7082214391461016
  0.7097503709887603  0.3757873371507759  0.7097495862079883
  0.7918166038417170  0.7922508665147064  0.6251116779021525
  0.8750034997536060  0.8754938946324461  0.7083067250874725
  0.7914472380472155  0.9589116264919928  0.7914472330114553
  0.8748320012472460  0.0419343481882817  0.8748320393410598
  0.6245821914178314  0.1249295727774841  0.1250285120048170
  0.7085229995853108  0.2086635065157180  0.2079057163887256
  0.6248680365857213  0.2917425254050168  0.9585452320941296
  0.7081641225754632  0.3749811851556129  0.0421030105578950
  0.7914267840533926  0.1251309545598424  0.9582189377145730
  0.8749225395139765  0.2084179455808718  0.0415172714938354
  0.7916229473363053  0.2914685663204519  0.1249533390388260
  0.8744354146649659  0.3747374057034272  0.2088580012012762
  0.6231133220055327  0.1261750955179839  0.4569703789794304
  0.7067655648582811  0.2097791436491044  0.5407274786092120
  0.6231116046214514  0.2903028413426075  0.2928429672060048
  0.7067649617192553  0.3740601144268561  0.3764468290132355
  0.7911317616982205  0.1250036487799154  0.2916698283523101
  0.8745887569066079  0.2083153620087342  0.3749814887946877
  0.7911480974664170  0.2917974710542631  0.4584642660683790
  0.8752038084523522  0.3751298249634841  0.5417951822661571
  0.6246934216647548  0.1260971403387891  0.7906225473668732
  0.7082211536896273  0.2087313362294227  0.8749253882041752
  0.6251009503412108  0.2951328828069706  0.6251007747082145
  0.7906228994044920  0.1260971655044009  0.6246937497317688
  0.4584686681256726  0.1255033187642155  0.2921687626068388
  0.3683755168106126  0.3805441301499103  0.3683806211387763
  0.2921695205115948  0.2918015016827265  0.2921693814561403
  0.1249006410854325  0.1248857803365679  0.9580450251964349
  0.2081616821484140  0.2081521436711616  0.0413487530129410
  0.1243988504617737  0.2915072555989195  0.1243994167446156
  0.2074550991498250  0.3742458752419738  0.2074552641097462
  0.9580559452944809  0.1251378737070555  0.4581853618877552
  0.0417534576691176  0.2083212889701773  0.5413762954747317
  0.9580558762591646  0.2915194681729926  0.2918037858803102
  0.0417537989796543  0.3747101390279339  0.3749878118457139
  0.1249261391909820  0.1250009720215056  0.2916668000342245
  0.2085356844667472  0.2081943102260994  0.3748605437640446
  0.1254773797998968  0.2913720323219104  0.4580385828962533
  0.2094115657530796  0.3742392206914472  0.5409055247756510
  0.9582188833277347  0.1251310325251226  0.7914269371993641
  0.0415172987893081  0.2084179202158208  0.8749225950303087
  0.9585445242325854  0.2917427194148501  0.6248679236530549
  0.0421029689105839  0.3749811588922504  0.7081641629509302
  0.1250289056067546  0.1249294355632521  0.6245816753955419
  0.2079067195910587  0.2086653327027605  0.7085221548912055
  0.1249525503233031  0.2914686534710267  0.7916230404071236
  0.2088575291848200  0.3747372006661494  0.8744356849324426
  0.9580861702229626  0.4581865588114485  0.1253537431730489
  0.0415958356957969  0.5413665486679404  0.2085091704206556
  0.9585393173604210  0.6249698241539362  0.9585393981272997
  0.0414217632251418  0.3748014122977650  0.0414222493213910
  0.0417557821144463  0.7082139636364201  0.0417557582194515
  0.9583194732500280  0.2916524436317846  0.9583198061122289
  0.9580448839807425  0.1248856868348225  0.1249007093105318
  0.0415397990027631  0.8748738639189632  0.2082867722836537
  0.9582105119541310  0.9584025651204502  0.9582105012943464
  0.0415396507965975  0.0416209648121623  0.0415398712134013
  0.1250682265896953  0.7915447775232360  0.9582106299677421
  0.2082866926597830  0.8748738394066056  0.0415399795750363
  0.1248897308846877  0.9582240722337554  0.1248898953984180
  0.2082319530303873  0.0415660893767479  0.2082319908432932
  0.9583197938272747  0.7916538689582266  0.4583181338957756
  0.0414215983502728  0.8747556845938118  0.5414672539471215
  0.9580448750579237  0.9582349361208137  0.2915514103003597
  0.0413486807998922  0.0414956768274766  0.3748179761947401
  0.1249008047684528  0.7913790590644956  0.2915515665526396
  0.2081616441637613  0.8746828931019923  0.3748180851501912
  0.1243987474164909  0.9577327435179589  0.4581735461647277
  0.2074544197634071  0.0407888828989846  0.5409120579187959
  0.9585392842307682  0.7918735963440940  0.7916359163938449
  0.0417554993930742  0.8750900430733095  0.8748799463189945
  0.9580858918851447  0.9586878229421807  0.6248520790198486
  0.0415955610794355  0.0418434294310470  0.7080323209731582
  0.1253534784343772  0.7914203323057473  0.6248521799587005
  0.2085089241836637  0.8749298628523769  0.7080322479758742
  0.1250288703165349  0.9583634717670607  0.7913206110954493
  0.2083157013225201  0.0416499894298226  0.8746518396332781
  0.0413486411468298  0.2081519368613491  0.2081617007518425
  0.1253535519744242  0.4581864214027516  0.9580864033205992
  0.2085091413411086  0.5413664628299101  0.0415961130727657
  0.1250294057236868  0.6246547046774199  0.1250294031045800
  0.3748600286546233  0.0418699917817679  0.3748603236982044
  0.4581853304089029  0.7913898393159442  0.2918036156244507
  0.5413762936551282  0.8750877638435012  0.3749872868831965
  0.4580381905572330  0.9588114649837383  0.4580383082800482
  0.5409053847249027  0.0427463506126173  0.5409045057166253
  0.2917965294555394  0.7915530641625784  0.7914268232904280
  0.3750835133487505  0.8748511178916289  0.8749224830722064
  0.2915948524685055  0.9583634919119636  0.6245815656915629
  0.3753297139197271  0.0412406400782287  0.7085225470196941
  0.4584085703849670  0.7918784247980801  0.6248677116128811
  0.5416467831838429  0.8754372452288407  0.7081635144939183
  0.4581339051826183  0.9582875973000542  0.7916225052359644
  0.5414034971118606  0.0421921017250185  0.8744354568241407
  0.2916668307558478  0.1250006635143894  0.1249262516290156
  0.3748600143364794  0.2081940294124164  0.2085355566255959
  0.2918035190014641  0.2915196053846570  0.9580559457757294
  0.3749877500967994  0.3747098992717924  0.0417535873957608
  0.4581854847921909  0.1251376910497151  0.9580558889730516
  0.5413766748741015  0.2083215114167435  0.0417538451585622
  0.4580387333813278  0.2913716952732803  0.1254776108681082
  0.5409053732391703  0.3742383337527069  0.2094130332599625
  0.2921693629790750  0.1255039126896494  0.4584669634147006
  0.3683756580024726  0.2017126540572858  0.5472096007181881
  0.2916668292447319  0.9582606801967530  0.2916666262533633
  0.3749876664405483  0.8750876687141940  0.5413763427933583
  0.2918036227235138  0.7913896650876522  0.4581854684273177
  0.5409122748077905  0.0407885466233638  0.2074544468645467
  0.2083159395864870  0.7079856863251411  0.2083160861128539
  0.9585450351501315  0.4582020193088071  0.4584083457925316
  0.0421031461672064  0.5414981870868483  0.5416470230340013
  0.9582191945882627  0.6247610640217621  0.2917967040653934
  0.0415175281308732  0.7082566224496395  0.3750837042608008
  0.1250286230079010  0.4579157527625904  0.2915955818428695
  0.2079065007285095  0.5418553952480618  0.3753305344026213
  0.1249525480877970  0.6249575921020433  0.4581345966285962
  0.2088578793799653  0.7077693939403210  0.5414030183356574
  0.9589167680532358  0.4584462545799547  0.7918165415960110
  0.0421595107109090  0.5416413799343128  0.8750035596111366
  0.7920859057523522  0.6254205029824651  0.7920859800005620
  0.9589167500452507  0.6251508770941431  0.6251117544415804
  0.1258613051589960  0.4577479053130317  0.6244140076763621
  0.2090598716217890  0.5411717893596019  0.7078380177135432
  0.1255772093277016  0.6247815895614695  0.7914474562722486
  0.2086000327586305  0.7081661649880399  0.8748322702371046
  0.2915515854216534  0.7913790125938299  0.1249010179691294
  0.3748178461781099  0.8746827463128912  0.2081618409537135
  0.2915513771332360  0.9582347812889446  0.9580450692654464
  0.3748179077318383  0.0414957070573441  0.0413485571772635
  0.4583179799782440  0.7916534972164786  0.9583197455719021
  0.5414670552938146  0.8747560808316456  0.0414218271323266
  0.4581730587810584  0.9577329883500182  0.1243986297563996
  0.0421595627350986  0.7083380060007074  0.7083070002018014
  0.8752850532321510  0.7086194772467689  0.8752852003261467
 
  0.00000000E+00  0.00000000E+00  0.00000000E+00
  0.00000000E+00  0.00000000E+00  0.00000000E+00
  0.00000000E+00  0.00000000E+00  0.00000000E+00
  0.00000000E+00  0.00000000E+00  0.00000000E+00
  0.00000000E+00  0.00000000E+00  0.00000000E+00
  0.00000000E+00  0.00000000E+00  0.00000000E+00
  0.00000000E+00  0.00000000E+00  0.00000000E+00
  0.00000000E+00  0.00000000E+00  0.00000000E+00
  0.00000000E+00  0.00000000E+00  0.00000000E+00
  0.00000000E+00  0.00000000E+00  0.00000000E+00
  0.00000000E+00  0.00000000E+00  0.00000000E+00
  0.00000000E+00  0.00000000E+00  0.00000000E+00
  0.00000000E+00  0.00000000E+00  0.00000000E+00
  0.00000000E+00  0.00000000E+00  0.00000000E+00
  0.00000000E+00  0.00000000E+00  0.00000000E+00
  0.00000000E+00  0.00000000E+00  0.00000000E+00
  0.00000000E+00  0.00000000E+00  0.00000000E+00
  0.00000000E+00  0.00000000E+00  0.00000000E+00
  0.00000000E+00  0.00000000E+00  0.00000000E+00
  0.00000000E+00  0.00000000E+00  0.00000000E+00
  0.00000000E+00  0.00000000E+00  0.00000000E+00
  0.00000000E+00  0.00000000E+00  0.00000000E+00
  0.00000000E+00  0.00000000E+00  0.00000000E+00
  0.00000000E+00  0.00000000E+00  0.00000000E+00
  0.00000000E+00  0.00000000E+00  0.00000000E+00
  0.00000000E+00  0.00000000E+00  0.00000000E+00
  0.00000000E+00  0.00000000E+00  0.00000000E+00
  0.00000000E+00  0.00000000E+00  0.00000000E+00
  0.00000000E+00  0.00000000E+00  0.00000000E+00
  0.00000000E+00  0.00000000E+00  0.00000000E+00
  0.00000000E+00  0.00000000E+00  0.00000000E+00
  0.00000000E+00  0.00000000E+00  0.00000000E+00
  0.00000000E+00  0.00000000E+00  0.00000000E+00
  0.00000000E+00  0.00000000E+00  0.00000000E+00
  0.00000000E+00  0.00000000E+00  0.00000000E+00
  0.00000000E+00  0.00000000E+00  0.00000000E+00
  0.00000000E+00  0.00000000E+00  0.00000000E+00
  0.00000000E+00  0.00000000E+00  0.00000000E+00
  0.00000000E+00  0.00000000E+00  0.00000000E+00
  0.00000000E+00  0.00000000E+00  0.00000000E+00
  0.00000000E+00  0.00000000E+00  0.00000000E+00
  0.00000000E+00  0.00000000E+00  0.00000000E+00
  0.00000000E+00  0.00000000E+00  0.00000000E+00
  0.00000000E+00  0.00000000E+00  0.00000000E+00
  0.00000000E+00  0.00000000E+00  0.00000000E+00
  0.00000000E+00  0.00000000E+00  0.00000000E+00
  0.00000000E+00  0.00000000E+00  0.00000000E+00
  0.00000000E+00  0.00000000E+00  0.00000000E+00
  0.00000000E+00  0.00000000E+00  0.00000000E+00
  0.00000000E+00  0.00000000E+00  0.00000000E+00
  0.00000000E+00  0.00000000E+00  0.00000000E+00
  0.00000000E+00  0.00000000E+00  0.00000000E+00
  0.00000000E+00  0.00000000E+00  0.00000000E+00
  0.00000000E+00  0.00000000E+00  0.00000000E+00
  0.00000000E+00  0.00000000E+00  0.00000000E+00
  0.00000000E+00  0.00000000E+00  0.00000000E+00
  0.00000000E+00  0.00000000E+00  0.00000000E+00
  0.00000000E+00  0.00000000E+00  0.00000000E+00
  0.00000000E+00  0.00000000E+00  0.00000000E+00
  0.00000000E+00  0.00000000E+00  0.00000000E+00
  0.00000000E+00  0.00000000E+00  0.00000000E+00
  0.00000000E+00  0.00000000E+00  0.00000000E+00
  0.00000000E+00  0.00000000E+00  0.00000000E+00
  0.00000000E+00  0.00000000E+00  0.00000000E+00
  0.00000000E+00  0.00000000E+00  0.00000000E+00
  0.00000000E+00  0.00000000E+00  0.00000000E+00
  0.00000000E+00  0.00000000E+00  0.00000000E+00
  0.00000000E+00  0.00000000E+00  0.00000000E+00
  0.00000000E+00  0.00000000E+00  0.00000000E+00
  0.00000000E+00  0.00000000E+00  0.00000000E+00
  0.00000000E+00  0.00000000E+00  0.00000000E+00
  0.00000000E+00  0.00000000E+00  0.00000000E+00
  0.00000000E+00  0.00000000E+00  0.00000000E+00
  0.00000000E+00  0.00000000E+00  0.00000000E+00
  0.00000000E+00  0.00000000E+00  0.00000000E+00
  0.00000000E+00  0.00000000E+00  0.00000000E+00
  0.00000000E+00  0.00000000E+00  0.00000000E+00
  0.00000000E+00  0.00000000E+00  0.00000000E+00
  0.00000000E+00  0.00000000E+00  0.00000000E+00
  0.00000000E+00  0.00000000E+00  0.00000000E+00
  0.00000000E+00  0.00000000E+00  0.00000000E+00
  0.00000000E+00  0.00000000E+00  0.00000000E+00
  0.00000000E+00  0.00000000E+00  0.00000000E+00
  0.00000000E+00  0.00000000E+00  0.00000000E+00
  0.00000000E+00  0.00000000E+00  0.00000000E+00
  0.00000000E+00  0.00000000E+00  0.00000000E+00
  0.00000000E+00  0.00000000E+00  0.00000000E+00
  0.00000000E+00  0.00000000E+00  0.00000000E+00
  0.00000000E+00  0.00000000E+00  0.00000000E+00
  0.00000000E+00  0.00000000E+00  0.00000000E+00
  0.00000000E+00  0.00000000E+00  0.00000000E+00
  0.00000000E+00  0.00000000E+00  0.00000000E+00
  0.00000000E+00  0.00000000E+00  0.00000000E+00
  0.00000000E+00  0.00000000E+00  0.00000000E+00
  0.00000000E+00  0.00000000E+00  0.00000000E+00
  0.00000000E+00  0.00000000E+00  0.00000000E+00
  0.00000000E+00  0.00000000E+00  0.00000000E+00
  0.00000000E+00  0.00000000E+00  0.00000000E+00
  0.00000000E+00  0.00000000E+00  0.00000000E+00
  0.00000000E+00  0.00000000E+00  0.00000000E+00
  0.00000000E+00  0.00000000E+00  0.00000000E+00
  0.00000000E+00  0.00000000E+00  0.00000000E+00
  0.00000000E+00  0.00000000E+00  0.00000000E+00
  0.00000000E+00  0.00000000E+00  0.00000000E+00
  0.00000000E+00  0.00000000E+00  0.00000000E+00
  0.00000000E+00  0.00000000E+00  0.00000000E+00
  0.00000000E+00  0.00000000E+00  0.00000000E+00
  0.00000000E+00  0.00000000E+00  0.00000000E+00
  0.00000000E+00  0.00000000E+00  0.00000000E+00
  0.00000000E+00  0.00000000E+00  0.00000000E+00
  0.00000000E+00  0.00000000E+00  0.00000000E+00
  0.00000000E+00  0.00000000E+00  0.00000000E+00
  0.00000000E+00  0.00000000E+00  0.00000000E+00
  0.00000000E+00  0.00000000E+00  0.00000000E+00
  0.00000000E+00  0.00000000E+00  0.00000000E+00
  0.00000000E+00  0.00000000E+00  0.00000000E+00
  0.00000000E+00  0.00000000E+00  0.00000000E+00
  0.00000000E+00  0.00000000E+00  0.00000000E+00
  0.00000000E+00  0.00000000E+00  0.00000000E+00
  0.00000000E+00  0.00000000E+00  0.00000000E+00
  0.00000000E+00  0.00000000E+00  0.00000000E+00
  0.00000000E+00  0.00000000E+00  0.00000000E+00
  0.00000000E+00  0.00000000E+00  0.00000000E+00
  0.00000000E+00  0.00000000E+00  0.00000000E+00
  0.00000000E+00  0.00000000E+00  0.00000000E+00
  0.00000000E+00  0.00000000E+00  0.00000000E+00
  0.00000000E+00  0.00000000E+00  0.00000000E+00
  0.00000000E+00  0.00000000E+00  0.00000000E+00
  0.00000000E+00  0.00000000E+00  0.00000000E+00
  0.00000000E+00  0.00000000E+00  0.00000000E+00
  0.00000000E+00  0.00000000E+00  0.00000000E+00
  0.00000000E+00  0.00000000E+00  0.00000000E+00
  0.00000000E+00  0.00000000E+00  0.00000000E+00
  0.00000000E+00  0.00000000E+00  0.00000000E+00
  0.00000000E+00  0.00000000E+00  0.00000000E+00
  0.00000000E+00  0.00000000E+00  0.00000000E+00
  0.00000000E+00  0.00000000E+00  0.00000000E+00
  0.00000000E+00  0.00000000E+00  0.00000000E+00
  0.00000000E+00  0.00000000E+00  0.00000000E+00
  0.00000000E+00  0.00000000E+00  0.00000000E+00
  0.00000000E+00  0.00000000E+00  0.00000000E+00
  0.00000000E+00  0.00000000E+00  0.00000000E+00
  0.00000000E+00  0.00000000E+00  0.00000000E+00
  0.00000000E+00  0.00000000E+00  0.00000000E+00
  0.00000000E+00  0.00000000E+00  0.00000000E+00
  0.00000000E+00  0.00000000E+00  0.00000000E+00
  0.00000000E+00  0.00000000E+00  0.00000000E+00
  0.00000000E+00  0.00000000E+00  0.00000000E+00
  0.00000000E+00  0.00000000E+00  0.00000000E+00
  0.00000000E+00  0.00000000E+00  0.00000000E+00
  0.00000000E+00  0.00000000E+00  0.00000000E+00
  0.00000000E+00  0.00000000E+00  0.00000000E+00
  0.00000000E+00  0.00000000E+00  0.00000000E+00
  0.00000000E+00  0.00000000E+00  0.00000000E+00
  0.00000000E+00  0.00000000E+00  0.00000000E+00
  0.00000000E+00  0.00000000E+00  0.00000000E+00
  0.00000000E+00  0.00000000E+00  0.00000000E+00
  0.00000000E+00  0.00000000E+00  0.00000000E+00
  0.00000000E+00  0.00000000E+00  0.00000000E+00
  0.00000000E+00  0.00000000E+00  0.00000000E+00
  0.00000000E+00  0.00000000E+00  0.00000000E+00
  0.00000000E+00  0.00000000E+00  0.00000000E+00
  0.00000000E+00  0.00000000E+00  0.00000000E+00
  0.00000000E+00  0.00000000E+00  0.00000000E+00
  0.00000000E+00  0.00000000E+00  0.00000000E+00
  0.00000000E+00  0.00000000E+00  0.00000000E+00
  0.00000000E+00  0.00000000E+00  0.00000000E+00
  0.00000000E+00  0.00000000E+00  0.00000000E+00
  0.00000000E+00  0.00000000E+00  0.00000000E+00
  0.00000000E+00  0.00000000E+00  0.00000000E+00
  0.00000000E+00  0.00000000E+00  0.00000000E+00
  0.00000000E+00  0.00000000E+00  0.00000000E+00
  0.00000000E+00  0.00000000E+00  0.00000000E+00
  0.00000000E+00  0.00000000E+00  0.00000000E+00
  0.00000000E+00  0.00000000E+00  0.00000000E+00
  0.00000000E+00  0.00000000E+00  0.00000000E+00
  0.00000000E+00  0.00000000E+00  0.00000000E+00
  0.00000000E+00  0.00000000E+00  0.00000000E+00
  0.00000000E+00  0.00000000E+00  0.00000000E+00
  0.00000000E+00  0.00000000E+00  0.00000000E+00
  0.00000000E+00  0.00000000E+00  0.00000000E+00
  0.00000000E+00  0.00000000E+00  0.00000000E+00
  0.00000000E+00  0.00000000E+00  0.00000000E+00
  0.00000000E+00  0.00000000E+00  0.00000000E+00
  0.00000000E+00  0.00000000E+00  0.00000000E+00
  0.00000000E+00  0.00000000E+00  0.00000000E+00
  0.00000000E+00  0.00000000E+00  0.00000000E+00
  0.00000000E+00  0.00000000E+00  0.00000000E+00
  0.00000000E+00  0.00000000E+00  0.00000000E+00
  0.00000000E+00  0.00000000E+00  0.00000000E+00
  0.00000000E+00  0.00000000E+00  0.00000000E+00
  0.00000000E+00  0.00000000E+00  0.00000000E+00
  0.00000000E+00  0.00000000E+00  0.00000000E+00
  0.00000000E+00  0.00000000E+00  0.00000000E+00
  0.00000000E+00  0.00000000E+00  0.00000000E+00
  0.00000000E+00  0.00000000E+00  0.00000000E+00
  0.00000000E+00  0.00000000E+00  0.00000000E+00
  0.00000000E+00  0.00000000E+00  0.00000000E+00
  0.00000000E+00  0.00000000E+00  0.00000000E+00
  0.00000000E+00  0.00000000E+00  0.00000000E+00
  0.00000000E+00  0.00000000E+00  0.00000000E+00
  0.00000000E+00  0.00000000E+00  0.00000000E+00
  0.00000000E+00  0.00000000E+00  0.00000000E+00
  0.00000000E+00  0.00000000E+00  0.00000000E+00
  0.00000000E+00  0.00000000E+00  0.00000000E+00
  0.00000000E+00  0.00000000E+00  0.00000000E+00
  0.00000000E+00  0.00000000E+00  0.00000000E+00
  0.00000000E+00  0.00000000E+00  0.00000000E+00
  0.00000000E+00  0.00000000E+00  0.00000000E+00
  0.00000000E+00  0.00000000E+00  0.00000000E+00
  0.00000000E+00  0.00000000E+00  0.00000000E+00
  0.00000000E+00  0.00000000E+00  0.00000000E+00
  0.00000000E+00  0.00000000E+00  0.00000000E+00
  0.00000000E+00  0.00000000E+00  0.00000000E+00
  0.00000000E+00  0.00000000E+00  0.00000000E+00
