x3                                      
   1.00000000000000     
    10.6822376251000009    0.0000000000000000    0.0000000000000000
    -0.0000014224000000   10.6822347641000004    0.0000000000000000
    -0.0000014224000000   -0.0000085346000000   10.6822347641000004
   N    C 
     1   214
Direct
  0.5498844592421064  0.3831747972428215  0.5498872783720838
  0.9581978805086798  0.7915754835970864  0.1250840882034911
  0.3753997836419238  0.5414669898109058  0.8748552502431095
  0.2917304361828888  0.1249872391630958  0.7908267436421806
  0.2927227902199906  0.6240493462380776  0.6248232445607881
  0.3754435291485667  0.7083704863768442  0.7082157412123834
  0.4614373168802178  0.4582357514425598  0.6251912458752834
  0.5425688256889714  0.5429667791918916  0.7096469091820038
  0.4587004254018427  0.6256007122635311  0.7922335040183331
  0.5419403909727346  0.7087859751730938  0.8754047012151090
  0.6248804034842171  0.7915232511340269  0.1253736809091386
  0.7079499501103345  0.8750831548991881  0.2086115811020322
  0.6248162892014073  0.9587291150509731  0.9581043018400142
  0.7079492579438067  0.0418800023693075  0.0417126476716773
  0.7916219280106289  0.7919008262747388  0.9585367236373921
  0.8748492367111593  0.8751265865415966  0.0417819091418987
  0.7912759062363317  0.9583845220863932  0.1250722867884407
  0.8745205054219920  0.0416888383081902  0.2084172847717740
  0.6248316255110109  0.7920303613932270  0.4583829457567394
  0.7080947359546638  0.8755947696745369  0.5416142999082103
  0.6245426611178674  0.9586224116593075  0.2916869014996072
  0.7082109721851095  0.0415216017824617  0.3754595282002306
  0.7913986623195033  0.7916427643804120  0.2918088604299807
  0.8748648694669192  0.8749269225145228  0.3751354418710799
  0.7914469264792263  0.9584274020830461  0.4580024276961919
  0.8743628997591876  0.0421458097051878  0.5413427365711576
  0.2927913758654752  0.4578289355003228  0.7905410259349323
  0.6250715106101791  0.7923363211808662  0.7917695408343629
  0.5418518397840011  0.7086595489508606  0.5418495751143775
  0.5409320945598095  0.5402877522022025  0.3766096605039127
  0.3749775805166094  0.2081800914770030  0.8744433194743783
  0.2929389077200025  0.2892041266352340  0.6232065672763772
  0.3762110309544410  0.3736181800869158  0.7065358832913843
  0.4563504035445163  0.1268772611295657  0.6223079781602834
  0.5404263217386832  0.2095114789771804  0.7065927428138190
  0.4584404727879156  0.2916613576315882  0.7910025134813583
  0.5417577169450218  0.3749852591526637  0.8751449167114826
  0.2915776930538744  0.4578548240658554  0.1247870083051216
  0.3751091286321843  0.5418556159302303  0.2078517366023137
  0.2918260552304415  0.6247798221253152  0.9581455493428763
  0.3750628614483884  0.7083061287861349  0.0415001611540415
  0.4584412204343293  0.4581487327303049  0.9584861742265227
  0.5417035930365487  0.5414080616982482  0.0420939351553982
  0.4582789959987724  0.6249849892534040  0.1249444024236849
  0.5414327850144806  0.7079066840155981  0.2088956607811063
  0.2927398779184719  0.4562961353820879  0.4578826170044363
  0.3766088473029063  0.5402936253906491  0.5409346874039440
  0.2916599206448227  0.6247261924275943  0.2916588943750406
  0.3750400166595131  0.7081218061458415  0.3750392550914791
  0.4578814223671304  0.4562977296926835  0.2927334962469033
  0.4585486381869647  0.6246235211617083  0.4585498668970935
  0.5469375783833171  0.2034563158789249  0.3684413942479286
  0.7082834205606409  0.8755331714336579  0.8750019207854547
  0.7077434320271909  0.0423809658476100  0.7077440310567231
  0.8754187547340377  0.3752121148983800  0.8754171157549926
  0.6244866786253519  0.4575859085386689  0.1259110219635541
  0.7078904010022262  0.5410920533264122  0.2090683403171795
  0.6251308891295901  0.6251614810332307  0.9589139676615730
  0.7082999866925599  0.7083739885232269  0.0421780296723156
  0.7917971701304738  0.4583768096097219  0.9589417178944653
  0.8749786115367265  0.5416250191098921  0.0421527656034048
  0.7914367800047105  0.6247820971018480  0.1255805166864158
  0.8747912842730474  0.7082111260289761  0.2086202711772219
  0.6251882700006920  0.4582218359429060  0.4614400209320466
  0.7096446231757124  0.5429603657331251  0.5425702539623133
  0.6248215085731369  0.6240447961089650  0.2927225995597614
  0.7082172847433107  0.7083690589401540  0.3754431308577105
  0.7905428452839790  0.4578323315967228  0.2927915996736425
  0.8748544993276012  0.5414679510247482  0.3753996732053824
  0.7922324606489917  0.6256014055225639  0.4587024481077400
  0.8754048225896053  0.7087868586884073  0.5419429634571198
  0.6256040588143642  0.4588694291777740  0.7927071177565469
  0.7088204866641212  0.5421276395402910  0.8757963749274680
  0.6255944690170180  0.6260464754057523  0.6255927962674805
  0.7088126624366982  0.7091733727072449  0.7088133564328393
  0.7927088061597029  0.4588713862566377  0.6256059467189287
  0.8757955317095459  0.5421282963618993  0.7088214374385556
  0.7922495521758842  0.2919347378054604  0.7922489274057920
  0.6242138712748565  0.9594402369586635  0.6242118429040391
  0.8748990516271441  0.2086291416761384  0.7081509533196285
  0.7095844298535584  0.3757536931364637  0.7095735723858502
  0.7917697277460308  0.7923356655337945  0.6250713619755778
  0.8750023921853125  0.8755324701297659  0.7082833345076922
  0.7913929660136603  0.9589341806679027  0.7913938924701519
  0.8748134805352696  0.0419227124702902  0.8748148745026927
  0.6245632771535544  0.1249222796897554  0.1253303879533419
  0.7084926168458768  0.2087828000984918  0.2079774267147777
  0.6248564385499049  0.2916497914644157  0.9585694443330806
  0.7082013522229321  0.3748349037354022  0.0421418624149314
  0.7913767620218117  0.1250748114704265  0.9582489152389724
  0.8748909232898339  0.2083646672506453  0.0415357623303441
  0.7915846015068355  0.2912641226914544  0.1249927030685928
  0.8743467147424678  0.3746013176370490  0.2088555319535779
  0.6223155959792854  0.1268739595239125  0.4563521462210184
  0.7065962961630979  0.2095036566367434  0.5404296101025297
  0.6232185602921402  0.2892026265018898  0.2929250424318650
  0.7065493373987572  0.3736194944743525  0.3762037989624157
  0.7908250229911344  0.1249860620701292  0.2917320678972172
  0.8744422000175477  0.2081782207882741  0.3749791951983891
  0.7910031495087010  0.2916587793034860  0.4584404610699691
  0.8751454381217786  0.3749849639810240  0.5417562108464078
  0.6245529234143816  0.1260502639906567  0.7905280203656837
  0.7081481195492636  0.2086306884758672  0.8749012540899277
  0.6250400177456755  0.2943577713108596  0.6250316477931736
  0.7905280302354470  0.1260529588832420  0.6245560391748222
  0.4593036268390863  0.1260020794385473  0.2928931254612120
  0.3683591190196309  0.3798289412958618  0.3683498668908964
  0.2920557738426089  0.2907663319785342  0.2920531360495263
  0.1249324644025594  0.1248047169369358  0.9579881948844746
  0.2082481511275472  0.2080259896948879  0.0413247024006951
  0.1243896450308025  0.2912886685494649  0.1243916755721816
  0.2074688630819037  0.3742956552586811  0.2074678766376474
  0.9580273872494371  0.1250933296626308  0.4581912109293421
  0.0418236200404263  0.2081574097570040  0.5414505092088852
  0.9579478298175254  0.2913905900948583  0.2918290943563740
  0.0416827068086124  0.3745335730430249  0.3750929488139671
  0.1250154347319895  0.1249076791971501  0.2918005709497153
  0.2086550263843812  0.2077611620319980  0.3753222127031577
  0.1255236605885273  0.2912040443492697  0.4581484623893943
  0.2094763248026784  0.3736937450291745  0.5414324112372521
  0.9582477602359593  0.1250754829615588  0.7913784554174945
  0.0415349133603192  0.2083664128357305  0.8748909861851651
  0.9585697512539136  0.2916494293372865  0.6248578625554010
  0.0421431904995349  0.3748355982768801  0.7082002603229571
  0.1253316724878809  0.1249227399443797  0.6245620140765403
  0.2079805976056142  0.2087874630272259  0.7084936144605244
  0.1249920110386768  0.2912637746423140  0.7915812808631696
  0.2088542078132188  0.3746017469684041  0.8743462961114135
  0.9579970237657804  0.4581020184551509  0.1253515608438062
  0.0414720985311114  0.5414093745123771  0.2084451598288891
  0.9585304633306642  0.6249576381487040  0.9585312829026921
  0.0414145439962448  0.3747792302814065  0.0414159801445161
  0.0417293932535179  0.7082614815752719  0.0417303449276742
  0.9583020403765539  0.2915383456561941  0.9583046840924113
  0.9579871796202787  0.1248041440617082  0.1249343594366655
  0.0415167185630932  0.8749269727047352  0.2083099307447553
  0.9582035135777762  0.9583944782269235  0.9582043145570408
  0.0415450180485819  0.0415982679316245  0.0415466616353995
  0.1250837509532927  0.7915744142327897  0.9581991479064387
  0.2083093935144781  0.8749266736957149  0.0415170208052988
  0.1249233801599074  0.9582338769389136  0.1249243447655442
  0.2083471557332071  0.0415172979813563  0.2083487581819906
  0.9582955173789075  0.7917133605892092  0.4583390629199684
  0.0414559132461981  0.8748227593595191  0.5414436111804022
  0.9580084991067692  0.9582723840297446  0.2915894094782032
  0.0413954174095547  0.0414447138703013  0.3749137115008663
  0.1249189072320246  0.7915180636168909  0.2916076670659066
  0.2082543917989700  0.8748703238813811  0.3748680820234727
  0.1245443631396972  0.9578501870453524  0.4583205033229714
  0.2077100448530547  0.0409731073961843  0.5408446962159424
  0.9585348577020627  0.7919005357009468  0.7916233421708503
  0.0417809272776648  0.8751264775171029  0.8748502387889269
  0.9581032037173215  0.9587272997271973  0.6248167161663378
  0.0417100072719861  0.0418814089415337  0.7079484873070294
  0.1253726805612367  0.7915248558020566  0.6248806283071520
  0.2086132229575484  0.8750825240709270  0.7079510987654170
  0.1250703606912421  0.9583834378516899  0.7912761509891796
  0.2084157971437458  0.0416887564463412  0.8745223166528248
  0.0413255360535895  0.2080252586518353  0.2082497734378234
  0.1253502987631189  0.4581016863318067  0.9579964831716697
  0.2084446543531790  0.5414078560691382  0.0414731725619134
  0.1249991973127799  0.6246855152958823  0.1249998644328589
  0.3751937895232728  0.0424659668518188  0.3751976551107557
  0.4582582577590699  0.7915885452983441  0.2918505996868402
  0.5413666197612996  0.8753465342277092  0.3750487051602522
  0.4580688174002113  0.9591524878159993  0.4580718721092441
  0.5406903863478213  0.0432196029864324  0.5406883908943065
  0.2918089670470099  0.7916418918563712  0.7913987804129919
  0.3751347095285514  0.8749265437639978  0.8748660504946767
  0.2916848286665936  0.9586225410686894  0.6245424076536217
  0.3754576014214531  0.0415289926224024  0.7082071422870476
  0.4583880535110628  0.7920317053370307  0.6248337137837218
  0.5416137431434543  0.8755972564004815  0.7080930499622227
  0.4580002602703180  0.9584284086022898  0.7914477751636166
  0.5413420196134867  0.0421449614398384  0.8743629064986308
  0.2917966315697527  0.1249062051385399  0.1250137025884437
  0.3753218156748713  0.2077602174821159  0.2086537631075835
  0.2918258195300845  0.2913939989659560  0.9579496107386634
  0.3750918404016799  0.3745321469469183  0.0416821836747953
  0.4581899075588438  0.1250926469495268  0.9580281528576160
  0.5414517684497409  0.2081562648338663  0.0418238360549799
  0.4581502318113964  0.2912021427114794  0.1255209124298484
  0.5414292350296500  0.3736963783991644  0.2094690643162386
  0.2928941341994780  0.1260078454244932  0.4593088720782733
  0.3684369235771517  0.2034602901657489  0.5469113500161746
  0.2919291495352097  0.9585680586998234  0.2919300958668795
  0.3750507935933685  0.8753484689421849  0.5413687558202215
  0.2918515516099691  0.7915868778611790  0.4582571482766128
  0.5408455896205594  0.0409767933906248  0.2077141816927377
  0.2082469169497317  0.7081515880897393  0.2082481368094684
  0.9584868252166879  0.4581492536778393  0.4584422148154564
  0.0420917283095373  0.5414095001245307  0.5417035178528602
  0.9581454524522716  0.6247806252989296  0.2918272089783759
  0.0415001490630543  0.7083064222382135  0.3750647910869738
  0.1247865242043488  0.4578544447915827  0.2915778873297266
  0.2078528385812151  0.5418526149066027  0.3751117784872207
  0.1249441165668015  0.6249832061117871  0.4582807549344593
  0.2088980586791978  0.7079077198602636  0.5414346652738418
  0.9589419552117990  0.4583782748222938  0.7917977008897820
  0.0421524827253801  0.5416254473123570  0.8749786151473463
  0.7920839617404809  0.6254318092697199  0.7920851182638985
  0.9589115629777417  0.6251629752830610  0.6251310124000213
  0.1259089984457163  0.4575858304372217  0.6244841779757309
  0.2090673439198584  0.5410933022034998  0.7078921720818109
  0.1255794148103078  0.6247814132670018  0.7914376375737157
  0.2086185172801253  0.7082094195644153  0.8747924087974622
  0.2916065921576866  0.7915180204231231  0.1249194304198659
  0.3748660204987126  0.8748709207227316  0.2082564021156899
  0.2915884444737988  0.9582715433300292  0.9580101956843353
  0.3749119065400434  0.0414440833636511  0.0413942185611343
  0.4583392558853966  0.7917117427806412  0.9582960467006432
  0.5414437621969445  0.8748226508583725  0.0414585252937782
  0.4583166075000796  0.9578513764353176  0.1245434901143112
  0.0421769567591727  0.7083739786891433  0.7083002467657238
  0.8752838650773684  0.7086466042638793  0.8752851565210111
 
  0.00000000E+00  0.00000000E+00  0.00000000E+00
  0.00000000E+00  0.00000000E+00  0.00000000E+00
  0.00000000E+00  0.00000000E+00  0.00000000E+00
  0.00000000E+00  0.00000000E+00  0.00000000E+00
  0.00000000E+00  0.00000000E+00  0.00000000E+00
  0.00000000E+00  0.00000000E+00  0.00000000E+00
  0.00000000E+00  0.00000000E+00  0.00000000E+00
  0.00000000E+00  0.00000000E+00  0.00000000E+00
  0.00000000E+00  0.00000000E+00  0.00000000E+00
  0.00000000E+00  0.00000000E+00  0.00000000E+00
  0.00000000E+00  0.00000000E+00  0.00000000E+00
  0.00000000E+00  0.00000000E+00  0.00000000E+00
  0.00000000E+00  0.00000000E+00  0.00000000E+00
  0.00000000E+00  0.00000000E+00  0.00000000E+00
  0.00000000E+00  0.00000000E+00  0.00000000E+00
  0.00000000E+00  0.00000000E+00  0.00000000E+00
  0.00000000E+00  0.00000000E+00  0.00000000E+00
  0.00000000E+00  0.00000000E+00  0.00000000E+00
  0.00000000E+00  0.00000000E+00  0.00000000E+00
  0.00000000E+00  0.00000000E+00  0.00000000E+00
  0.00000000E+00  0.00000000E+00  0.00000000E+00
  0.00000000E+00  0.00000000E+00  0.00000000E+00
  0.00000000E+00  0.00000000E+00  0.00000000E+00
  0.00000000E+00  0.00000000E+00  0.00000000E+00
  0.00000000E+00  0.00000000E+00  0.00000000E+00
  0.00000000E+00  0.00000000E+00  0.00000000E+00
  0.00000000E+00  0.00000000E+00  0.00000000E+00
  0.00000000E+00  0.00000000E+00  0.00000000E+00
  0.00000000E+00  0.00000000E+00  0.00000000E+00
  0.00000000E+00  0.00000000E+00  0.00000000E+00
  0.00000000E+00  0.00000000E+00  0.00000000E+00
  0.00000000E+00  0.00000000E+00  0.00000000E+00
  0.00000000E+00  0.00000000E+00  0.00000000E+00
  0.00000000E+00  0.00000000E+00  0.00000000E+00
  0.00000000E+00  0.00000000E+00  0.00000000E+00
  0.00000000E+00  0.00000000E+00  0.00000000E+00
  0.00000000E+00  0.00000000E+00  0.00000000E+00
  0.00000000E+00  0.00000000E+00  0.00000000E+00
  0.00000000E+00  0.00000000E+00  0.00000000E+00
  0.00000000E+00  0.00000000E+00  0.00000000E+00
  0.00000000E+00  0.00000000E+00  0.00000000E+00
  0.00000000E+00  0.00000000E+00  0.00000000E+00
  0.00000000E+00  0.00000000E+00  0.00000000E+00
  0.00000000E+00  0.00000000E+00  0.00000000E+00
  0.00000000E+00  0.00000000E+00  0.00000000E+00
  0.00000000E+00  0.00000000E+00  0.00000000E+00
  0.00000000E+00  0.00000000E+00  0.00000000E+00
  0.00000000E+00  0.00000000E+00  0.00000000E+00
  0.00000000E+00  0.00000000E+00  0.00000000E+00
  0.00000000E+00  0.00000000E+00  0.00000000E+00
  0.00000000E+00  0.00000000E+00  0.00000000E+00
  0.00000000E+00  0.00000000E+00  0.00000000E+00
  0.00000000E+00  0.00000000E+00  0.00000000E+00
  0.00000000E+00  0.00000000E+00  0.00000000E+00
  0.00000000E+00  0.00000000E+00  0.00000000E+00
  0.00000000E+00  0.00000000E+00  0.00000000E+00
  0.00000000E+00  0.00000000E+00  0.00000000E+00
  0.00000000E+00  0.00000000E+00  0.00000000E+00
  0.00000000E+00  0.00000000E+00  0.00000000E+00
  0.00000000E+00  0.00000000E+00  0.00000000E+00
  0.00000000E+00  0.00000000E+00  0.00000000E+00
  0.00000000E+00  0.00000000E+00  0.00000000E+00
  0.00000000E+00  0.00000000E+00  0.00000000E+00
  0.00000000E+00  0.00000000E+00  0.00000000E+00
  0.00000000E+00  0.00000000E+00  0.00000000E+00
  0.00000000E+00  0.00000000E+00  0.00000000E+00
  0.00000000E+00  0.00000000E+00  0.00000000E+00
  0.00000000E+00  0.00000000E+00  0.00000000E+00
  0.00000000E+00  0.00000000E+00  0.00000000E+00
  0.00000000E+00  0.00000000E+00  0.00000000E+00
  0.00000000E+00  0.00000000E+00  0.00000000E+00
  0.00000000E+00  0.00000000E+00  0.00000000E+00
  0.00000000E+00  0.00000000E+00  0.00000000E+00
  0.00000000E+00  0.00000000E+00  0.00000000E+00
  0.00000000E+00  0.00000000E+00  0.00000000E+00
  0.00000000E+00  0.00000000E+00  0.00000000E+00
  0.00000000E+00  0.00000000E+00  0.00000000E+00
  0.00000000E+00  0.00000000E+00  0.00000000E+00
  0.00000000E+00  0.00000000E+00  0.00000000E+00
  0.00000000E+00  0.00000000E+00  0.00000000E+00
  0.00000000E+00  0.00000000E+00  0.00000000E+00
  0.00000000E+00  0.00000000E+00  0.00000000E+00
  0.00000000E+00  0.00000000E+00  0.00000000E+00
  0.00000000E+00  0.00000000E+00  0.00000000E+00
  0.00000000E+00  0.00000000E+00  0.00000000E+00
  0.00000000E+00  0.00000000E+00  0.00000000E+00
  0.00000000E+00  0.00000000E+00  0.00000000E+00
  0.00000000E+00  0.00000000E+00  0.00000000E+00
  0.00000000E+00  0.00000000E+00  0.00000000E+00
  0.00000000E+00  0.00000000E+00  0.00000000E+00
  0.00000000E+00  0.00000000E+00  0.00000000E+00
  0.00000000E+00  0.00000000E+00  0.00000000E+00
  0.00000000E+00  0.00000000E+00  0.00000000E+00
  0.00000000E+00  0.00000000E+00  0.00000000E+00
  0.00000000E+00  0.00000000E+00  0.00000000E+00
  0.00000000E+00  0.00000000E+00  0.00000000E+00
  0.00000000E+00  0.00000000E+00  0.00000000E+00
  0.00000000E+00  0.00000000E+00  0.00000000E+00
  0.00000000E+00  0.00000000E+00  0.00000000E+00
  0.00000000E+00  0.00000000E+00  0.00000000E+00
  0.00000000E+00  0.00000000E+00  0.00000000E+00
  0.00000000E+00  0.00000000E+00  0.00000000E+00
  0.00000000E+00  0.00000000E+00  0.00000000E+00
  0.00000000E+00  0.00000000E+00  0.00000000E+00
  0.00000000E+00  0.00000000E+00  0.00000000E+00
  0.00000000E+00  0.00000000E+00  0.00000000E+00
  0.00000000E+00  0.00000000E+00  0.00000000E+00
  0.00000000E+00  0.00000000E+00  0.00000000E+00
  0.00000000E+00  0.00000000E+00  0.00000000E+00
  0.00000000E+00  0.00000000E+00  0.00000000E+00
  0.00000000E+00  0.00000000E+00  0.00000000E+00
  0.00000000E+00  0.00000000E+00  0.00000000E+00
  0.00000000E+00  0.00000000E+00  0.00000000E+00
  0.00000000E+00  0.00000000E+00  0.00000000E+00
  0.00000000E+00  0.00000000E+00  0.00000000E+00
  0.00000000E+00  0.00000000E+00  0.00000000E+00
  0.00000000E+00  0.00000000E+00  0.00000000E+00
  0.00000000E+00  0.00000000E+00  0.00000000E+00
  0.00000000E+00  0.00000000E+00  0.00000000E+00
  0.00000000E+00  0.00000000E+00  0.00000000E+00
  0.00000000E+00  0.00000000E+00  0.00000000E+00
  0.00000000E+00  0.00000000E+00  0.00000000E+00
  0.00000000E+00  0.00000000E+00  0.00000000E+00
  0.00000000E+00  0.00000000E+00  0.00000000E+00
  0.00000000E+00  0.00000000E+00  0.00000000E+00
  0.00000000E+00  0.00000000E+00  0.00000000E+00
  0.00000000E+00  0.00000000E+00  0.00000000E+00
  0.00000000E+00  0.00000000E+00  0.00000000E+00
  0.00000000E+00  0.00000000E+00  0.00000000E+00
  0.00000000E+00  0.00000000E+00  0.00000000E+00
  0.00000000E+00  0.00000000E+00  0.00000000E+00
  0.00000000E+00  0.00000000E+00  0.00000000E+00
  0.00000000E+00  0.00000000E+00  0.00000000E+00
  0.00000000E+00  0.00000000E+00  0.00000000E+00
  0.00000000E+00  0.00000000E+00  0.00000000E+00
  0.00000000E+00  0.00000000E+00  0.00000000E+00
  0.00000000E+00  0.00000000E+00  0.00000000E+00
  0.00000000E+00  0.00000000E+00  0.00000000E+00
  0.00000000E+00  0.00000000E+00  0.00000000E+00
  0.00000000E+00  0.00000000E+00  0.00000000E+00
  0.00000000E+00  0.00000000E+00  0.00000000E+00
  0.00000000E+00  0.00000000E+00  0.00000000E+00
  0.00000000E+00  0.00000000E+00  0.00000000E+00
  0.00000000E+00  0.00000000E+00  0.00000000E+00
  0.00000000E+00  0.00000000E+00  0.00000000E+00
  0.00000000E+00  0.00000000E+00  0.00000000E+00
  0.00000000E+00  0.00000000E+00  0.00000000E+00
  0.00000000E+00  0.00000000E+00  0.00000000E+00
  0.00000000E+00  0.00000000E+00  0.00000000E+00
  0.00000000E+00  0.00000000E+00  0.00000000E+00
  0.00000000E+00  0.00000000E+00  0.00000000E+00
  0.00000000E+00  0.00000000E+00  0.00000000E+00
  0.00000000E+00  0.00000000E+00  0.00000000E+00
  0.00000000E+00  0.00000000E+00  0.00000000E+00
  0.00000000E+00  0.00000000E+00  0.00000000E+00
  0.00000000E+00  0.00000000E+00  0.00000000E+00
  0.00000000E+00  0.00000000E+00  0.00000000E+00
  0.00000000E+00  0.00000000E+00  0.00000000E+00
  0.00000000E+00  0.00000000E+00  0.00000000E+00
  0.00000000E+00  0.00000000E+00  0.00000000E+00
  0.00000000E+00  0.00000000E+00  0.00000000E+00
  0.00000000E+00  0.00000000E+00  0.00000000E+00
  0.00000000E+00  0.00000000E+00  0.00000000E+00
  0.00000000E+00  0.00000000E+00  0.00000000E+00
  0.00000000E+00  0.00000000E+00  0.00000000E+00
  0.00000000E+00  0.00000000E+00  0.00000000E+00
  0.00000000E+00  0.00000000E+00  0.00000000E+00
  0.00000000E+00  0.00000000E+00  0.00000000E+00
  0.00000000E+00  0.00000000E+00  0.00000000E+00
  0.00000000E+00  0.00000000E+00  0.00000000E+00
  0.00000000E+00  0.00000000E+00  0.00000000E+00
  0.00000000E+00  0.00000000E+00  0.00000000E+00
  0.00000000E+00  0.00000000E+00  0.00000000E+00
  0.00000000E+00  0.00000000E+00  0.00000000E+00
  0.00000000E+00  0.00000000E+00  0.00000000E+00
  0.00000000E+00  0.00000000E+00  0.00000000E+00
  0.00000000E+00  0.00000000E+00  0.00000000E+00
  0.00000000E+00  0.00000000E+00  0.00000000E+00
  0.00000000E+00  0.00000000E+00  0.00000000E+00
  0.00000000E+00  0.00000000E+00  0.00000000E+00
  0.00000000E+00  0.00000000E+00  0.00000000E+00
  0.00000000E+00  0.00000000E+00  0.00000000E+00
  0.00000000E+00  0.00000000E+00  0.00000000E+00
  0.00000000E+00  0.00000000E+00  0.00000000E+00
  0.00000000E+00  0.00000000E+00  0.00000000E+00
  0.00000000E+00  0.00000000E+00  0.00000000E+00
  0.00000000E+00  0.00000000E+00  0.00000000E+00
  0.00000000E+00  0.00000000E+00  0.00000000E+00
  0.00000000E+00  0.00000000E+00  0.00000000E+00
  0.00000000E+00  0.00000000E+00  0.00000000E+00
  0.00000000E+00  0.00000000E+00  0.00000000E+00
  0.00000000E+00  0.00000000E+00  0.00000000E+00
  0.00000000E+00  0.00000000E+00  0.00000000E+00
  0.00000000E+00  0.00000000E+00  0.00000000E+00
  0.00000000E+00  0.00000000E+00  0.00000000E+00
  0.00000000E+00  0.00000000E+00  0.00000000E+00
  0.00000000E+00  0.00000000E+00  0.00000000E+00
  0.00000000E+00  0.00000000E+00  0.00000000E+00
  0.00000000E+00  0.00000000E+00  0.00000000E+00
  0.00000000E+00  0.00000000E+00  0.00000000E+00
  0.00000000E+00  0.00000000E+00  0.00000000E+00
  0.00000000E+00  0.00000000E+00  0.00000000E+00
  0.00000000E+00  0.00000000E+00  0.00000000E+00
  0.00000000E+00  0.00000000E+00  0.00000000E+00
  0.00000000E+00  0.00000000E+00  0.00000000E+00
  0.00000000E+00  0.00000000E+00  0.00000000E+00
  0.00000000E+00  0.00000000E+00  0.00000000E+00
  0.00000000E+00  0.00000000E+00  0.00000000E+00
  0.00000000E+00  0.00000000E+00  0.00000000E+00
  0.00000000E+00  0.00000000E+00  0.00000000E+00
  0.00000000E+00  0.00000000E+00  0.00000000E+00
  0.00000000E+00  0.00000000E+00  0.00000000E+00
  0.00000000E+00  0.00000000E+00  0.00000000E+00
  0.00000000E+00  0.00000000E+00  0.00000000E+00
  0.00000000E+00  0.00000000E+00  0.00000000E+00
