#algorithm
ALGO  =  Normal

# accuracy
PREC   =  Normal
LREAL  =  Auto
EDIFF  =  1e-05
ENCUT  =  520.0
LASPH  =  True
NELM   =  100

# ionic relaxation
ISIF    =  2
IBRION  =  2
EDIFFG  =  -0.01
NSW     =  500
ISYM = -1

# occupation
ISMEAR  =  -2
SIGMA   =  0.1
FERWE = 430*1.0 2*1.0 216*0.0 
FERDO = 430*1.0 2*0.0 216*0.0
NELECT =  862
NBANDS = 648 

# HSE06
LHFCALC  = .TRUE.
AEXX = 0.25
HFSCREEN = 0.2

# spin
ISPIN  =  2

# IO control
LWAVE   =  True
LCHARG  =  True

# analyzer
LORBIT  =  11

NCORE = 24
