x3                                      
   1.00000000000000     
    10.6822376251000009    0.0000000000000000    0.0000000000000000
    -0.0000014224000000   10.6822347641000004    0.0000000000000000
    -0.0000014224000000   -0.0000085346000000   10.6822347641000004
   N    C 
     1   214
Direct
  0.5494714609897500  0.3828053126523798  0.5494713999578380
  0.9582112529772360  0.7915454729513769  0.1250855704076059
  0.3754435713010338  0.5415753477045016  0.8748577415520060
  0.2916673494780255  0.1250017322712509  0.7912629119190342
  0.2928476366594808  0.6239282051658321  0.6246983603747012
  0.3754435464007173  0.7081910863357876  0.7082405354014085
  0.4624147211320633  0.4582310865331465  0.6248984765695624
  0.5422939561815880  0.5430565757358323  0.7097224699546416
  0.4588584312600474  0.6256277487232396  0.7922935849869859
  0.5418954931822739  0.7087547465163269  0.8754202789007124
  0.6248653782570841  0.7913890240280708  0.1253454578702602
  0.7080761170890923  0.8748592920096954  0.2084826280239795
  0.6248646582922532  0.9586795319747097  0.9580545233373812
  0.7080767863756918  0.0418160836662622  0.0415243493521018
  0.7916469130624009  0.7918688310057149  0.9585345728528125
  0.8748831493264220  0.8750735973945396  0.0417391545769945
  0.7913519925846728  0.9583525466762808  0.1250183103092652
  0.8746951455139396  0.0416289004551444  0.2082953048471410
  0.6248831314241343  0.7918185197028293  0.4584499230485406
  0.7081948030944076  0.8753911144520146  0.5416702534139617
  0.6246447724104272  0.9582596871730047  0.2915756724775846
  0.7084195367165194  0.0413183860193271  0.3752002086042765
  0.7914265332828307  0.7915125233333740  0.2918415102081511
  0.8749192729439201  0.8748433504536095  0.3750915646337347
  0.7915991561916798  0.9583240178751424  0.4581813122149256
  0.8744069583692848  0.0422346002095182  0.5414562915882186
  0.2928473601553847  0.4580325178379567  0.7905952262370164
  0.6251603494041476  0.7922134727200429  0.7918219041961194
  0.5418677947720667  0.7084651097111845  0.5418677928812912
  0.5409378913868466  0.5399957386376215  0.3766479427891980
  0.3750496371335501  0.2083824980591729  0.8745663951953091
  0.2930702536209253  0.2906972439954458  0.6230662249172667
  0.3766474411556544  0.3742714877678495  0.7066614054131577
  0.4573662691901319  0.1264047602274019  0.6230636905143854
  0.5409370973029795  0.2099810871858807  0.7066623649468582
  0.4585261130735532  0.2918608453509961  0.7911118222248419
  0.5418683315556549  0.3752022455021518  0.8751317633836848
  0.2915764672314154  0.4579777180530229  0.1249254321812145
  0.3752025438040860  0.5417519416425733  0.2079866500171619
  0.2918416680261302  0.6247607524564174  0.9581786276595068
  0.3750916437499825  0.7082534280398605  0.0415095848190674
  0.4584501519441915  0.4582169994522332  0.9584847009199891
  0.5416704645869785  0.5415293804139054  0.0420571306595292
  0.4581810408313984  0.6249325468936178  0.1249897275529435
  0.5414559274549546  0.7077411890692389  0.2089007019854563
  0.2930696540207691  0.4563955095799344  0.4573639352729160
  0.3766479625399839  0.5399957298013902  0.5409378688915538
  0.2916676723091101  0.6245947950837945  0.2916676733472414
  0.3750491712469994  0.7078994427083600  0.3750491614566656
  0.4573639483541143  0.4563955062536706  0.2930696422158761
  0.4585264351701426  0.6244433978902109  0.4585264323391200
  0.5449496335799608  0.2025198601241271  0.3691851699688371
  0.7083056751819896  0.8754803453089863  0.8749798887953446
  0.7078620218322342  0.0424651699151823  0.7078620138996286
  0.8754202681281598  0.3752294427903138  0.8754202712902526
  0.6244889102539020  0.4578206488769965  0.1258072700155566
  0.7078627160325510  0.5411970669964603  0.2091315475397195
  0.6251605610297162  0.6251556174796775  0.9588791303021651
  0.7083056483716490  0.7083141275481921  0.0421457420910869
  0.7918215671389106  0.4584943094449088  0.9588792472285306
  0.8749801302118172  0.5416401264805586  0.0421458554185179
  0.7914414009292443  0.6247756929619328  0.1255849518138135
  0.8748177979766041  0.7081517958527002  0.2086202881212245
  0.6248985156255671  0.4582311075773973  0.4624147113621149
  0.7097224701027258  0.5430565926264279  0.5422939613551065
  0.6246983614811938  0.6239282103625428  0.2928476281566716
  0.7082405333969604  0.7081910875747397  0.3754435395888152
  0.7905952327992694  0.4580325232973905  0.2928473545049428
  0.8748577431264337  0.5415753525297760  0.3754435655843196
  0.7922935775395885  0.6256277532320169  0.4588584412808032
  0.8754202741098425  0.7087547435881589  0.5418955002456158
  0.6256754353330081  0.4590094047778734  0.7926115487914132
  0.7087797592637770  0.5421140479643256  0.8757317607866995
  0.6256754864621428  0.6259455089929489  0.6256755001743670
  0.7087798324081405  0.7090661784804695  0.7087798391834994
  0.7926115444080324  0.4590094046583957  0.6256754487610152
  0.8757317530048496  0.5421140485377194  0.7087797728077234
  0.7922935891401011  0.2921926879580710  0.7922935988723907
  0.6244883008752851  0.9591413910486253  0.6244883053490256
  0.8748570654671965  0.2087771264222482  0.7082409949246582
  0.7097223587664061  0.3756282596062448  0.7097223673372000
  0.7918218865175319  0.7922134696388028  0.6251603565639101
  0.8749798874986467  0.8754803384943770  0.7083056773972984
  0.7914415100748826  0.9589194129951935  0.7914415139480653
  0.8748174164107638  0.0419547110021412  0.8748174201208556
  0.6246452008818579  0.1249100956195335  0.1249250125642192
  0.7084186731001552  0.2085349983121105  0.2079853870624646
  0.6248826838297887  0.2917845699848343  0.9584848053123594
  0.7081958311137981  0.3750051131657131  0.0420564926768989
  0.7914262282702396  0.1251763047329462  0.9581782537332160
  0.8749200435641811  0.2084256722486089  0.0415085775999700
  0.7915996604995783  0.2915155947306900  0.1249896065374401
  0.8744083299536456  0.3747906276944377  0.2089003236202416
  0.6230636890111612  0.1264047760771518  0.4573662718562517
  0.7066623887279917  0.2099810905949866  0.5409370928584778
  0.6230662185425757  0.2906972581646770  0.2930702621492429
  0.7066614309049726  0.3742715045870497  0.3766474239989748
  0.7912629040192414  0.1250017377855883  0.2916673493447703
  0.8745664020456942  0.2083824970040240  0.3750496277491777
  0.7911118323036206  0.2918608455188689  0.4585261111163490
  0.8751317644516874  0.3752022507683108  0.5418683376015068
  0.6246984184402251  0.1261820974217116  0.7905950799829569
  0.7082409877823821  0.2087771239325704  0.8748570618569431
  0.6248974986964058  0.2957495834752066  0.6248974830635277
  0.7905950841033800  0.1261820940593950  0.6246984216270874
  0.4586750680179321  0.1251533660805606  0.2918181531290855
  0.3691882994386830  0.3782826114067532  0.3691882780530591
  0.2918168188358834  0.2920075824455921  0.2918168135616881
  0.1248998081751438  0.1248944188631356  0.9580755858544947
  0.2081826908010882  0.2081663000825174  0.0413437642506409
  0.1243542756547100  0.2915362918912621  0.1243542720904074
  0.2073280213767958  0.3743174670584679  0.2073280172219967
  0.9580252057003733  0.1251467051750339  0.4581929020504845
  0.0416773918326783  0.2083527902764999  0.5414174381138395
  0.9580250313488961  0.2915275902487267  0.2918126816465332
  0.0416779752499536  0.3747513688148487  0.3750196973400293
  0.1249744100407995  0.1249955623036954  0.2916613490799165
  0.2085558262556759  0.2081591133213365  0.3748263821667237
  0.1254213965954563  0.2913831211952669  0.4580498964157229
  0.2092389394865890  0.3743887146299372  0.5410529039194429
  0.9581782461603936  0.1251763066700278  0.7914262353294959
  0.0415085766394157  0.2084256735409724  0.8749200475112033
  0.9584848015903873  0.2917845746641561  0.6248826890329582
  0.0420564977544515  0.3750051136588510  0.7081958306978109
  0.1249250003558160  0.1249100816611985  0.6246452038366996
  0.2079853799057290  0.2085349930678149  0.7084186746406544
  0.1249895984137694  0.2915155939689882  0.7915996659138997
  0.2089003357556081  0.3747906274762087  0.8744083208328348
  0.9580548193250706  0.4581993701612319  0.1253452361111229
  0.0415249194347282  0.5414110719879375  0.2084822944194897
  0.9585347683095620  0.6249812886519734  0.9585347728064733
  0.0413923513502397  0.3748109990483997  0.0413923442538362
  0.0417392420376714  0.7082172535864828  0.0417392374807903
  0.9583056195038751  0.2917056510124993  0.9583056261005964
  0.9580755849718940  0.1248944193771564  0.1248998050972574
  0.0415323633871054  0.8748664056842514  0.2082910170590822
  0.9582110908279162  0.9584199756983338  0.9582110876900316
  0.0415322429410381  0.0416252468445677  0.0415322340496402
  0.1250855735357135  0.7915454701612745  0.9582112535143423
  0.2082910212519877  0.8748664084370574  0.0415323611275014
  0.1248811064319355  0.9582151811172892  0.1248811074267451
  0.2082143833504517  0.0415486780703986  0.2082143814652540
  0.9583055713441340  0.7916401773936528  0.4583707622707749
  0.0413921826117871  0.8747263356128911  0.5414768179099738
  0.9580761175553221  0.9582336533769578  0.2915598664412542
  0.0413437110176318  0.0415170166494931  0.3748319681094330
  0.1248998828067087  0.7914101005291272  0.2915598666188401
  0.2081832440149967  0.8746778165621478  0.3748323135692289
  0.1243540103688829  0.9576882881496971  0.4582014911373520
  0.2073285119269599  0.0406622772532685  0.5409833097844441
  0.9585345674935581  0.7918688286686120  0.7916469213267803
  0.0417391583497846  0.8750735951069615  0.8748831470631018
  0.9580545146633526  0.9586795200089568  0.6248646661874275
  0.0415243482130734  0.0418160760541468  0.7080767894668298
  0.1253454528870748  0.7913890146963425  0.6248653818418930
  0.2084826300968956  0.8748592842285561  0.7080761209561501
  0.1250183093545090  0.9583525418075070  0.7913519998437266
  0.2082953148075788  0.0416289000302399  0.8746951444361386
  0.0413437681946220  0.2081663017482427  0.2081826821052744
  0.1253452345376971  0.4581993661652675  0.9580548209496911
  0.2084822986585735  0.5414110706413240  0.0415249162574938
  0.1250181258039618  0.6246862227495313  0.1250181242774673
  0.3748263218005192  0.0418899460464246  0.3748263285413813
  0.4581930183204719  0.7913588408237544  0.2918119595222777
  0.5414166221816430  0.8750121100766250  0.3750198531863518
  0.4580488825350457  0.9587556203517522  0.4580488892529146
  0.5410530460539889  0.0425745520286114  0.5410530380605536
  0.2918415078822107  0.7915125180106628  0.7914265399091676
  0.3750915725639459  0.8748433451760462  0.8749192695303378
  0.2915756671108056  0.9582596725201284  0.6246447749609771
  0.3752002127222198  0.0413183728031257  0.7084195321313871
  0.4584499237018633  0.7918185188686806  0.6248831363493252
  0.5416702560590352  0.8753911169107838  0.7081948038337273
  0.4581813112567943  0.9583240120662850  0.7915991591367941
  0.5414562895720962  0.0422346011155241  0.8744069538954449
  0.2916613499822986  0.1249955661362918  0.1249744132354280
  0.3748263779462917  0.2081591191905190  0.2085558256061830
  0.2918126877837111  0.2915275899919578  0.9580250261296825
  0.3750197016653516  0.3747513679682584  0.0416779731740817
  0.4581928999253648  0.1251467090847598  0.9580252048498608
  0.5414174377367971  0.2083527925632751  0.0416773903402117
  0.4580498915273594  0.2913831257396211  0.1254213978842103
  0.5410529162667927  0.3743887225789919  0.2092389249515847
  0.2918181191842848  0.1251533320035989  0.4586750907229202
  0.3691851156640951  0.2025197821361147  0.5449496497661173
  0.2916608599998511  0.9583089637051998  0.2916608639048945
  0.3750198581213908  0.8750121061720648  0.5414166204453110
  0.2918119602881362  0.7913588386312256  0.4581930215437566
  0.5409833106732549  0.0406623090534168  0.2073285351629650
  0.2082958113622624  0.7080279200244419  0.2082958038452318
  0.9584847003369390  0.4582170013967755  0.4584501576546600
  0.0420571323078107  0.5415293814838833  0.5416704675938533
  0.9581786257518843  0.6247607552647807  0.2918416742932735
  0.0415095878642688  0.7082534307564430  0.3750916398173914
  0.1249254318907589  0.4579777195792545  0.2915764686104438
  0.2079866536440989  0.5417519418428611  0.3752025353375288
  0.1249897241920479  0.6249325470939198  0.4581810460276543
  0.2089007145353037  0.7077411885546780  0.5414559264888510
  0.9588792429714772  0.4584943132300339  0.7918215814812086
  0.0421458592242203  0.5416401262966133  0.8749801296964179
  0.7921003218044191  0.6254346943667741  0.7921003356132132
  0.9588791224835589  0.6251556126475037  0.6251605751726501
  0.1258072736013105  0.4578206487275409  0.6244889152558528
  0.2091315578178623  0.5411970664437007  0.7078627145373915
  0.1255849524309838  0.6247756904034958  0.7914414039604125
  0.2086202871111027  0.7081517915201871  0.8748177987078023
  0.2915598670222934  0.7914101034926802  0.1248998823896272
  0.3748323189293359  0.8746778241754072  0.2081832410086477
  0.2915598712588263  0.9582336559614149  0.9580761217087002
  0.3748319759114693  0.0415170233720232  0.0413437097053873
  0.4583707582132206  0.7916401803311857  0.9583055783472432
  0.5414768247898039  0.8747263474154394  0.0413921865811417
  0.4582014911927388  0.9576883050400298  0.1243540244330958
  0.0421457437357162  0.7083141244418414  0.7083056503454443
  0.8752623030984097  0.7085963602326473  0.8752623062195610
 
  0.00000000E+00  0.00000000E+00  0.00000000E+00
  0.00000000E+00  0.00000000E+00  0.00000000E+00
  0.00000000E+00  0.00000000E+00  0.00000000E+00
  0.00000000E+00  0.00000000E+00  0.00000000E+00
  0.00000000E+00  0.00000000E+00  0.00000000E+00
  0.00000000E+00  0.00000000E+00  0.00000000E+00
  0.00000000E+00  0.00000000E+00  0.00000000E+00
  0.00000000E+00  0.00000000E+00  0.00000000E+00
  0.00000000E+00  0.00000000E+00  0.00000000E+00
  0.00000000E+00  0.00000000E+00  0.00000000E+00
  0.00000000E+00  0.00000000E+00  0.00000000E+00
  0.00000000E+00  0.00000000E+00  0.00000000E+00
  0.00000000E+00  0.00000000E+00  0.00000000E+00
  0.00000000E+00  0.00000000E+00  0.00000000E+00
  0.00000000E+00  0.00000000E+00  0.00000000E+00
  0.00000000E+00  0.00000000E+00  0.00000000E+00
  0.00000000E+00  0.00000000E+00  0.00000000E+00
  0.00000000E+00  0.00000000E+00  0.00000000E+00
  0.00000000E+00  0.00000000E+00  0.00000000E+00
  0.00000000E+00  0.00000000E+00  0.00000000E+00
  0.00000000E+00  0.00000000E+00  0.00000000E+00
  0.00000000E+00  0.00000000E+00  0.00000000E+00
  0.00000000E+00  0.00000000E+00  0.00000000E+00
  0.00000000E+00  0.00000000E+00  0.00000000E+00
  0.00000000E+00  0.00000000E+00  0.00000000E+00
  0.00000000E+00  0.00000000E+00  0.00000000E+00
  0.00000000E+00  0.00000000E+00  0.00000000E+00
  0.00000000E+00  0.00000000E+00  0.00000000E+00
  0.00000000E+00  0.00000000E+00  0.00000000E+00
  0.00000000E+00  0.00000000E+00  0.00000000E+00
  0.00000000E+00  0.00000000E+00  0.00000000E+00
  0.00000000E+00  0.00000000E+00  0.00000000E+00
  0.00000000E+00  0.00000000E+00  0.00000000E+00
  0.00000000E+00  0.00000000E+00  0.00000000E+00
  0.00000000E+00  0.00000000E+00  0.00000000E+00
  0.00000000E+00  0.00000000E+00  0.00000000E+00
  0.00000000E+00  0.00000000E+00  0.00000000E+00
  0.00000000E+00  0.00000000E+00  0.00000000E+00
  0.00000000E+00  0.00000000E+00  0.00000000E+00
  0.00000000E+00  0.00000000E+00  0.00000000E+00
  0.00000000E+00  0.00000000E+00  0.00000000E+00
  0.00000000E+00  0.00000000E+00  0.00000000E+00
  0.00000000E+00  0.00000000E+00  0.00000000E+00
  0.00000000E+00  0.00000000E+00  0.00000000E+00
  0.00000000E+00  0.00000000E+00  0.00000000E+00
  0.00000000E+00  0.00000000E+00  0.00000000E+00
  0.00000000E+00  0.00000000E+00  0.00000000E+00
  0.00000000E+00  0.00000000E+00  0.00000000E+00
  0.00000000E+00  0.00000000E+00  0.00000000E+00
  0.00000000E+00  0.00000000E+00  0.00000000E+00
  0.00000000E+00  0.00000000E+00  0.00000000E+00
  0.00000000E+00  0.00000000E+00  0.00000000E+00
  0.00000000E+00  0.00000000E+00  0.00000000E+00
  0.00000000E+00  0.00000000E+00  0.00000000E+00
  0.00000000E+00  0.00000000E+00  0.00000000E+00
  0.00000000E+00  0.00000000E+00  0.00000000E+00
  0.00000000E+00  0.00000000E+00  0.00000000E+00
  0.00000000E+00  0.00000000E+00  0.00000000E+00
  0.00000000E+00  0.00000000E+00  0.00000000E+00
  0.00000000E+00  0.00000000E+00  0.00000000E+00
  0.00000000E+00  0.00000000E+00  0.00000000E+00
  0.00000000E+00  0.00000000E+00  0.00000000E+00
  0.00000000E+00  0.00000000E+00  0.00000000E+00
  0.00000000E+00  0.00000000E+00  0.00000000E+00
  0.00000000E+00  0.00000000E+00  0.00000000E+00
  0.00000000E+00  0.00000000E+00  0.00000000E+00
  0.00000000E+00  0.00000000E+00  0.00000000E+00
  0.00000000E+00  0.00000000E+00  0.00000000E+00
  0.00000000E+00  0.00000000E+00  0.00000000E+00
  0.00000000E+00  0.00000000E+00  0.00000000E+00
  0.00000000E+00  0.00000000E+00  0.00000000E+00
  0.00000000E+00  0.00000000E+00  0.00000000E+00
  0.00000000E+00  0.00000000E+00  0.00000000E+00
  0.00000000E+00  0.00000000E+00  0.00000000E+00
  0.00000000E+00  0.00000000E+00  0.00000000E+00
  0.00000000E+00  0.00000000E+00  0.00000000E+00
  0.00000000E+00  0.00000000E+00  0.00000000E+00
  0.00000000E+00  0.00000000E+00  0.00000000E+00
  0.00000000E+00  0.00000000E+00  0.00000000E+00
  0.00000000E+00  0.00000000E+00  0.00000000E+00
  0.00000000E+00  0.00000000E+00  0.00000000E+00
  0.00000000E+00  0.00000000E+00  0.00000000E+00
  0.00000000E+00  0.00000000E+00  0.00000000E+00
  0.00000000E+00  0.00000000E+00  0.00000000E+00
  0.00000000E+00  0.00000000E+00  0.00000000E+00
  0.00000000E+00  0.00000000E+00  0.00000000E+00
  0.00000000E+00  0.00000000E+00  0.00000000E+00
  0.00000000E+00  0.00000000E+00  0.00000000E+00
  0.00000000E+00  0.00000000E+00  0.00000000E+00
  0.00000000E+00  0.00000000E+00  0.00000000E+00
  0.00000000E+00  0.00000000E+00  0.00000000E+00
  0.00000000E+00  0.00000000E+00  0.00000000E+00
  0.00000000E+00  0.00000000E+00  0.00000000E+00
  0.00000000E+00  0.00000000E+00  0.00000000E+00
  0.00000000E+00  0.00000000E+00  0.00000000E+00
  0.00000000E+00  0.00000000E+00  0.00000000E+00
  0.00000000E+00  0.00000000E+00  0.00000000E+00
  0.00000000E+00  0.00000000E+00  0.00000000E+00
  0.00000000E+00  0.00000000E+00  0.00000000E+00
  0.00000000E+00  0.00000000E+00  0.00000000E+00
  0.00000000E+00  0.00000000E+00  0.00000000E+00
  0.00000000E+00  0.00000000E+00  0.00000000E+00
  0.00000000E+00  0.00000000E+00  0.00000000E+00
  0.00000000E+00  0.00000000E+00  0.00000000E+00
  0.00000000E+00  0.00000000E+00  0.00000000E+00
  0.00000000E+00  0.00000000E+00  0.00000000E+00
  0.00000000E+00  0.00000000E+00  0.00000000E+00
  0.00000000E+00  0.00000000E+00  0.00000000E+00
  0.00000000E+00  0.00000000E+00  0.00000000E+00
  0.00000000E+00  0.00000000E+00  0.00000000E+00
  0.00000000E+00  0.00000000E+00  0.00000000E+00
  0.00000000E+00  0.00000000E+00  0.00000000E+00
  0.00000000E+00  0.00000000E+00  0.00000000E+00
  0.00000000E+00  0.00000000E+00  0.00000000E+00
  0.00000000E+00  0.00000000E+00  0.00000000E+00
  0.00000000E+00  0.00000000E+00  0.00000000E+00
  0.00000000E+00  0.00000000E+00  0.00000000E+00
  0.00000000E+00  0.00000000E+00  0.00000000E+00
  0.00000000E+00  0.00000000E+00  0.00000000E+00
  0.00000000E+00  0.00000000E+00  0.00000000E+00
  0.00000000E+00  0.00000000E+00  0.00000000E+00
  0.00000000E+00  0.00000000E+00  0.00000000E+00
  0.00000000E+00  0.00000000E+00  0.00000000E+00
  0.00000000E+00  0.00000000E+00  0.00000000E+00
  0.00000000E+00  0.00000000E+00  0.00000000E+00
  0.00000000E+00  0.00000000E+00  0.00000000E+00
  0.00000000E+00  0.00000000E+00  0.00000000E+00
  0.00000000E+00  0.00000000E+00  0.00000000E+00
  0.00000000E+00  0.00000000E+00  0.00000000E+00
  0.00000000E+00  0.00000000E+00  0.00000000E+00
  0.00000000E+00  0.00000000E+00  0.00000000E+00
  0.00000000E+00  0.00000000E+00  0.00000000E+00
  0.00000000E+00  0.00000000E+00  0.00000000E+00
  0.00000000E+00  0.00000000E+00  0.00000000E+00
  0.00000000E+00  0.00000000E+00  0.00000000E+00
  0.00000000E+00  0.00000000E+00  0.00000000E+00
  0.00000000E+00  0.00000000E+00  0.00000000E+00
  0.00000000E+00  0.00000000E+00  0.00000000E+00
  0.00000000E+00  0.00000000E+00  0.00000000E+00
  0.00000000E+00  0.00000000E+00  0.00000000E+00
  0.00000000E+00  0.00000000E+00  0.00000000E+00
  0.00000000E+00  0.00000000E+00  0.00000000E+00
  0.00000000E+00  0.00000000E+00  0.00000000E+00
  0.00000000E+00  0.00000000E+00  0.00000000E+00
  0.00000000E+00  0.00000000E+00  0.00000000E+00
  0.00000000E+00  0.00000000E+00  0.00000000E+00
  0.00000000E+00  0.00000000E+00  0.00000000E+00
  0.00000000E+00  0.00000000E+00  0.00000000E+00
  0.00000000E+00  0.00000000E+00  0.00000000E+00
  0.00000000E+00  0.00000000E+00  0.00000000E+00
  0.00000000E+00  0.00000000E+00  0.00000000E+00
  0.00000000E+00  0.00000000E+00  0.00000000E+00
  0.00000000E+00  0.00000000E+00  0.00000000E+00
  0.00000000E+00  0.00000000E+00  0.00000000E+00
  0.00000000E+00  0.00000000E+00  0.00000000E+00
  0.00000000E+00  0.00000000E+00  0.00000000E+00
  0.00000000E+00  0.00000000E+00  0.00000000E+00
  0.00000000E+00  0.00000000E+00  0.00000000E+00
  0.00000000E+00  0.00000000E+00  0.00000000E+00
  0.00000000E+00  0.00000000E+00  0.00000000E+00
  0.00000000E+00  0.00000000E+00  0.00000000E+00
  0.00000000E+00  0.00000000E+00  0.00000000E+00
  0.00000000E+00  0.00000000E+00  0.00000000E+00
  0.00000000E+00  0.00000000E+00  0.00000000E+00
  0.00000000E+00  0.00000000E+00  0.00000000E+00
  0.00000000E+00  0.00000000E+00  0.00000000E+00
  0.00000000E+00  0.00000000E+00  0.00000000E+00
  0.00000000E+00  0.00000000E+00  0.00000000E+00
  0.00000000E+00  0.00000000E+00  0.00000000E+00
  0.00000000E+00  0.00000000E+00  0.00000000E+00
  0.00000000E+00  0.00000000E+00  0.00000000E+00
  0.00000000E+00  0.00000000E+00  0.00000000E+00
  0.00000000E+00  0.00000000E+00  0.00000000E+00
  0.00000000E+00  0.00000000E+00  0.00000000E+00
  0.00000000E+00  0.00000000E+00  0.00000000E+00
  0.00000000E+00  0.00000000E+00  0.00000000E+00
  0.00000000E+00  0.00000000E+00  0.00000000E+00
  0.00000000E+00  0.00000000E+00  0.00000000E+00
  0.00000000E+00  0.00000000E+00  0.00000000E+00
  0.00000000E+00  0.00000000E+00  0.00000000E+00
  0.00000000E+00  0.00000000E+00  0.00000000E+00
  0.00000000E+00  0.00000000E+00  0.00000000E+00
  0.00000000E+00  0.00000000E+00  0.00000000E+00
  0.00000000E+00  0.00000000E+00  0.00000000E+00
  0.00000000E+00  0.00000000E+00  0.00000000E+00
  0.00000000E+00  0.00000000E+00  0.00000000E+00
  0.00000000E+00  0.00000000E+00  0.00000000E+00
  0.00000000E+00  0.00000000E+00  0.00000000E+00
  0.00000000E+00  0.00000000E+00  0.00000000E+00
  0.00000000E+00  0.00000000E+00  0.00000000E+00
  0.00000000E+00  0.00000000E+00  0.00000000E+00
  0.00000000E+00  0.00000000E+00  0.00000000E+00
  0.00000000E+00  0.00000000E+00  0.00000000E+00
  0.00000000E+00  0.00000000E+00  0.00000000E+00
  0.00000000E+00  0.00000000E+00  0.00000000E+00
  0.00000000E+00  0.00000000E+00  0.00000000E+00
  0.00000000E+00  0.00000000E+00  0.00000000E+00
  0.00000000E+00  0.00000000E+00  0.00000000E+00
  0.00000000E+00  0.00000000E+00  0.00000000E+00
  0.00000000E+00  0.00000000E+00  0.00000000E+00
  0.00000000E+00  0.00000000E+00  0.00000000E+00
  0.00000000E+00  0.00000000E+00  0.00000000E+00
  0.00000000E+00  0.00000000E+00  0.00000000E+00
  0.00000000E+00  0.00000000E+00  0.00000000E+00
  0.00000000E+00  0.00000000E+00  0.00000000E+00
  0.00000000E+00  0.00000000E+00  0.00000000E+00
  0.00000000E+00  0.00000000E+00  0.00000000E+00
  0.00000000E+00  0.00000000E+00  0.00000000E+00
  0.00000000E+00  0.00000000E+00  0.00000000E+00
  0.00000000E+00  0.00000000E+00  0.00000000E+00
  0.00000000E+00  0.00000000E+00  0.00000000E+00
  0.00000000E+00  0.00000000E+00  0.00000000E+00
  0.00000000E+00  0.00000000E+00  0.00000000E+00
  0.00000000E+00  0.00000000E+00  0.00000000E+00
  0.00000000E+00  0.00000000E+00  0.00000000E+00
