x3                                      
   1.00000000000000     
    10.6822376251000009    0.0000000000000000    0.0000000000000000
    -0.0000014224000000   10.6822347641000004    0.0000000000000000
    -0.0000014224000000   -0.0000085346000000   10.6822347641000004
   N    C 
     1   214
Direct
  0.5498844592421079  0.3831747972428232  0.5498872783720827
  0.9581978805086777  0.7915754835970858  0.1250840882034936
  0.3753997836419245  0.5414669898109068  0.8748552502431082
  0.2917304361828883  0.1249872391630973  0.7908267436421781
  0.2927227902199903  0.6240493462380812  0.6248232445607869
  0.3754435291485692  0.7083704863768432  0.7082157412123848
  0.4614373168802146  0.4582357514425581  0.6251912458752855
  0.5425688256889742  0.5429667791918931  0.7096469091820055
  0.4587004254018439  0.6256007122635339  0.7922335040183341
  0.5419403909727336  0.7087859751730932  0.8754047012151105
  0.6248804034842195  0.7915232511340236  0.1253736809091421
  0.7079499501103328  0.8750831548991869  0.2086115811020335
  0.6248162892014051  0.9587291150509714  0.9581043018400166
  0.7079492579438096  0.0418800023693109  0.0417126476716803
  0.7916219280106276  0.7919008262747411  0.9585367236373941
  0.8748492367111567  0.8751265865415974  0.0417819091418963
  0.7912759062363293  0.9583845220863907  0.1250722867884377
  0.8745205054219909  0.0416888383081897  0.2084172847717767
  0.6248316255110140  0.7920303613932305  0.4583829457567390
  0.7080947359546670  0.8755947696745352  0.5416142999082112
  0.6245426611178644  0.9586224116593058  0.2916869014996095
  0.7082109721851069  0.0415216017824633  0.3754595282002313
  0.7913986623195015  0.7916427643804127  0.2918088604299811
  0.8748648694669185  0.8749269225145255  0.3751354418710804
  0.7914469264792245  0.9584274020830463  0.4580024276961936
  0.8743628997591841  0.0421458097051897  0.5413427365711598
  0.2927913758654768  0.4578289355003236  0.7905410259349352
  0.6250715106101765  0.7923363211808692  0.7917695408343661
  0.5418518397840018  0.7086595489508625  0.5418495751143766
  0.5409320945598068  0.5402877522022038  0.3766096605039095
  0.3749775805166067  0.2081800914770042  0.8744433194743806
  0.2929389077200000  0.2892041266352336  0.6232065672763767
  0.3762110309544440  0.3736181800869147  0.7065358832913873
  0.4563504035445192  0.1268772611295645  0.6223079781602863
  0.5404263217386855  0.2095114789771770  0.7065927428138181
  0.4584404727879132  0.2916613576315896  0.7910025134813594
  0.5417577169450212  0.3749852591526661  0.8751449167114842
  0.2915776930538740  0.4578548240658549  0.1247870083051197
  0.3751091286321824  0.5418556159302312  0.2078517366023149
  0.2918260552304446  0.6247798221253120  0.9581455493428734
  0.3750628614483915  0.7083061287861341  0.0415001611540404
  0.4584412204343309  0.4581487327303080  0.9584861742265218
  0.5417035930365515  0.5414080616982488  0.0420939351553997
  0.4582789959987750  0.6249849892534058  0.1249444024236865
  0.5414327850144787  0.7079066840155974  0.2088956607811028
  0.2927398779184713  0.4562961353820896  0.4578826170044366
  0.3766088473029043  0.5402936253906461  0.5409346874039471
  0.2916599206448254  0.6247261924275946  0.2916588943750398
  0.3750400166595114  0.7081218061458401  0.3750392550914796
  0.4578814223671301  0.4562977296926860  0.2927334962469033
  0.4585486381869615  0.6246235211617090  0.4585498668970942
  0.5469375783833144  0.2034563158789240  0.3684413942479310
  0.7082834205606403  0.8755331714336592  0.8750019207854578
  0.7077434320271934  0.0423809658476131  0.7077440310567198
  0.8754187547340351  0.3752121148983818  0.8754171157549919
  0.6244866786253525  0.4575859085386682  0.1259110219635531
  0.7078904010022242  0.5410920533264090  0.2090683403171809
  0.6251308891295935  0.6251614810332313  0.9589139676615730
  0.7082999866925590  0.7083739885232276  0.0421780296723142
  0.7917971701304722  0.4583768096097245  0.9589417178944686
  0.8749786115367257  0.5416250191098939  0.0421527656034044
  0.7914367800047089  0.6247820971018498  0.1255805166864192
  0.8747912842730443  0.7082111260289778  0.2086202711772245
  0.6251882700006917  0.4582218359429078  0.4614400209320451
  0.7096446231757128  0.5429603657331228  0.5425702539623103
  0.6248215085731346  0.6240447961089615  0.2927225995597595
  0.7082172847433128  0.7083690589401570  0.3754431308577111
  0.7905428452839800  0.4578323315967197  0.2927915996736417
  0.8748544993276042  0.5414679510247495  0.3753996732053793
  0.7922324606489894  0.6256014055225663  0.4587024481077435
  0.8754048225896085  0.7087868586884056  0.5419429634571173
  0.6256040588143676  0.4588694291777742  0.7927071177565495
  0.7088204866641235  0.5421276395402899  0.8757963749274680
  0.6255944690170168  0.6260464754057509  0.6255927962674832
  0.7088126624366993  0.7091733727072480  0.7088133564328416
  0.7927088061597019  0.4588713862566394  0.6256059467189274
  0.8757955317095494  0.5421282963619021  0.7088214374385586
  0.7922495521758819  0.2919347378054624  0.7922489274057938
  0.6242138712748542  0.9594402369586632  0.6242118429040389
  0.8748990516271462  0.2086291416761412  0.7081509533196311
  0.7095844298535567  0.3757536931364669  0.7095735723858496
  0.7917697277460292  0.7923356655337912  0.6250713619755786
  0.8750023921853156  0.8755324701297624  0.7082833345076907
  0.7913929660136603  0.9589341806679030  0.7913938924701540
  0.8748134805352663  0.0419227124702886  0.8748148745026896
  0.6245632771535554  0.1249222796897556  0.1253303879533405
  0.7084926168458736  0.2087828000984899  0.2079774267147769
  0.6248564385499051  0.2916497914644154  0.9585694443330794
  0.7082013522229289  0.3748349037354046  0.0421418624149297
  0.7913767620218124  0.1250748114704265  0.9582489152389755
  0.8748909232898328  0.2083646672506418  0.0415357623303407
  0.7915846015068340  0.2912641226914516  0.1249927030685924
  0.8743467147424653  0.3746013176370511  0.2088555319535814
  0.6223155959792877  0.1268739595239126  0.4563521462210218
  0.7065962961630987  0.2095036566367412  0.5404296101025281
  0.6232185602921376  0.2892026265018899  0.2929250424318681
  0.7065493373987550  0.3736194944743545  0.3762037989624147
  0.7908250229911360  0.1249860620701284  0.2917320678972146
  0.8744422000175476  0.2081782207882767  0.3749791951983923
  0.7910031495087040  0.2916587793034893  0.4584404610699693
  0.8751454381217769  0.3749849639810208  0.5417562108464082
  0.6245529234143845  0.1260502639906562  0.7905280203656844
  0.7081481195492643  0.2086306884758642  0.8749012540899272
  0.6250400177456754  0.2943577713108567  0.6250316477931719
  0.7905280302354498  0.1260529588832426  0.6245560391748199
  0.4593036268390875  0.1260020794385497  0.2928931254612124
  0.3683591190196296  0.3798289412958624  0.3683498668908953
  0.2920557738426055  0.2907663319785314  0.2920531360495247
  0.1249324644025620  0.1248047169369357  0.9579881948844715
  0.2082481511275489  0.2080259896948888  0.0413247024006935
  0.1243896450308029  0.2912886685494627  0.1243916755721841
  0.2074688630819068  0.3742956552586776  0.2074678766376508
  0.9580273872494374  0.1250933296626329  0.4581912109293427
  0.0418236200404252  0.2081574097570069  0.5414505092088859
  0.9579478298175275  0.2913905900948563  0.2918290943563733
  0.0416827068086150  0.3745335730430241  0.3750929488139647
  0.1250154347319921  0.1249076791971504  0.2918005709497180
  0.2086550263843847  0.2077611620319999  0.3753222127031606
  0.1255236605885273  0.2912040443492714  0.4581484623893957
  0.2094763248026794  0.3736937450291720  0.5414324112372526
  0.9582477602359560  0.1250754829615559  0.7913784554174939
  0.0415349133603158  0.2083664128357299  0.8748909861851644
  0.9585697512539113  0.2916494293372836  0.6248578625554018
  0.0421431904995373  0.3748355982768814  0.7082002603229540
  0.1253316724878815  0.1249227399443811  0.6245620140765382
  0.2079805976056122  0.2087874630272282  0.7084936144605223
  0.1249920110386782  0.2912637746423172  0.7915812808631699
  0.2088542078132178  0.3746017469684020  0.8743462961114119
  0.9579970237657776  0.4581020184551505  0.1253515608438036
  0.0414720985311092  0.5414093745123765  0.2084451598288908
  0.9585304633306606  0.6249576381487074  0.9585312829026904
  0.0414145439962468  0.3747792302814048  0.0414159801445138
  0.0417293932535188  0.7082614815752706  0.0417303449276716
  0.9583020403765516  0.2915383456561926  0.9583046840924112
  0.9579871796202752  0.1248041440617058  0.1249343594366650
  0.0415167185630949  0.8749269727047349  0.2083099307447540
  0.9582035135777787  0.9583944782269214  0.9582043145570438
  0.0415450180485806  0.0415982679316258  0.0415466616354010
  0.1250837509532943  0.7915744142327910  0.9581991479064413
  0.2083093935144760  0.8749266736957182  0.0415170208053013
  0.1249233801599061  0.9582338769389125  0.1249243447655459
  0.2083471557332075  0.0415172979813576  0.2083487581819909
  0.9582955173789074  0.7917133605892062  0.4583390629199684
  0.0414559132461960  0.8748227593595175  0.5414436111804051
  0.9580084991067679  0.9582723840297476  0.2915894094782061
  0.0413954174095537  0.0414447138702982  0.3749137115008665
  0.1249189072320220  0.7915180636168913  0.2916076670659038
  0.2082543917989668  0.8748703238813818  0.3748680820234753
  0.1245443631396981  0.9578501870453522  0.4583205033229731
  0.2077100448530516  0.0409731073961837  0.5408446962159417
  0.9585348577020625  0.7919005357009468  0.7916233421708512
  0.0417809272776637  0.8751264775170995  0.8748502387889303
  0.9581032037173216  0.9587272997271938  0.6248167161663361
  0.0417100072719876  0.0418814089415349  0.7079484873070285
  0.1253726805612345  0.7915248558020593  0.6248806283071531
  0.2086132229575455  0.8750825240709261  0.7079510987654203
  0.1250703606912396  0.9583834378516869  0.7912761509891766
  0.2084157971437435  0.0416887564463408  0.8745223166528220
  0.0413255360535913  0.2080252586518370  0.2082497734378208
  0.1253502987631165  0.4581016863318084  0.9579964831716694
  0.2084446543531797  0.5414078560691351  0.0414731725619149
  0.1249991973127820  0.6246855152958801  0.1249998644328585
  0.3751937895232729  0.0424659668518217  0.3751976551107532
  0.4582582577590699  0.7915885452983460  0.2918505996868390
  0.5413666197612983  0.8753465342277096  0.3750487051602533
  0.4580688174002105  0.9591524878159987  0.4580718721092438
  0.5406903863478192  0.0432196029864329  0.5406883908943030
  0.2918089670470110  0.7916418918563721  0.7913987804129903
  0.3751347095285524  0.8749265437639977  0.8748660504946741
  0.2916848286665967  0.9586225410686922  0.6245424076536210
  0.3754576014214521  0.0415289926224034  0.7082071422870442
  0.4583880535110652  0.7920317053370312  0.6248337137837225
  0.5416137431434578  0.8755972564004821  0.7080930499622227
  0.4580002602703175  0.9584284086022876  0.7914477751636184
  0.5413420196134879  0.0421449614398384  0.8743629064986322
  0.2917966315697527  0.1249062051385366  0.1250137025884470
  0.3753218156748730  0.2077602174821180  0.2086537631075842
  0.2918258195300822  0.2913939989659582  0.9579496107386660
  0.3750918404016801  0.3745321469469189  0.0416821836747943
  0.4581899075588467  0.1250926469495255  0.9580281528576151
  0.5414517684497397  0.2081562648338675  0.0418238360549807
  0.4581502318113948  0.2912021427114766  0.1255209124298489
  0.5414292350296535  0.3736963783991669  0.2094690643162380
  0.2928941341994786  0.1260078454244962  0.4593088720782745
  0.3684369235771499  0.2034602901657507  0.5469113500161740
  0.2919291495352070  0.9585680586998251  0.2919300958668813
  0.3750507935933669  0.8753484689421853  0.5413687558202227
  0.2918515516099660  0.7915868778611781  0.4582571482766156
  0.5408455896205595  0.0409767933906267  0.2077141816927366
  0.2082469169497330  0.7081515880897413  0.2082481368094662
  0.9584868252166885  0.4581492536778384  0.4584422148154559
  0.0420917283095363  0.5414095001245300  0.5417035178528593
  0.9581454524522712  0.6247806252989321  0.2918272089783756
  0.0415001490630544  0.7083064222382163  0.3750647910869773
  0.1247865242043460  0.4578544447915860  0.2915778873297299
  0.2078528385812177  0.5418526149066025  0.3751117784872235
  0.1249441165668017  0.6249832061117857  0.4582807549344565
  0.2088980586791962  0.7079077198602661  0.5414346652738402
  0.9589419552117988  0.4583782748222944  0.7917977008897807
  0.0421524827253776  0.5416254473123558  0.8749786151473486
  0.7920839617404809  0.6254318092697204  0.7920851182638984
  0.9589115629777396  0.6251629752830610  0.6251310124000184
  0.1259089984457162  0.4575858304372247  0.6244841779757309
  0.2090673439198554  0.5410933022034996  0.7078921720818130
  0.1255794148103107  0.6247814132670015  0.7914376375737149
  0.2086185172801223  0.7082094195644117  0.8747924087974610
  0.2916065921576845  0.7915180204231262  0.1249194304198653
  0.3748660204987146  0.8748709207227350  0.2082564021156870
  0.2915884444737955  0.9582715433300280  0.9580101956843379
  0.3749119065400421  0.0414440833636505  0.0413942185611376
  0.4583392558853987  0.7917117427806417  0.9582960467006458
  0.5414437621969412  0.8748226508583699  0.0414585252937769
  0.4583166075000804  0.9578513764353147  0.1245434901143128
  0.0421769567591710  0.7083739786891456  0.7083002467657238
  0.8752838650773711  0.7086466042638762  0.8752851565210094
 
  0.00000000E+00  0.00000000E+00  0.00000000E+00
  0.00000000E+00  0.00000000E+00  0.00000000E+00
  0.00000000E+00  0.00000000E+00  0.00000000E+00
  0.00000000E+00  0.00000000E+00  0.00000000E+00
  0.00000000E+00  0.00000000E+00  0.00000000E+00
  0.00000000E+00  0.00000000E+00  0.00000000E+00
  0.00000000E+00  0.00000000E+00  0.00000000E+00
  0.00000000E+00  0.00000000E+00  0.00000000E+00
  0.00000000E+00  0.00000000E+00  0.00000000E+00
  0.00000000E+00  0.00000000E+00  0.00000000E+00
  0.00000000E+00  0.00000000E+00  0.00000000E+00
  0.00000000E+00  0.00000000E+00  0.00000000E+00
  0.00000000E+00  0.00000000E+00  0.00000000E+00
  0.00000000E+00  0.00000000E+00  0.00000000E+00
  0.00000000E+00  0.00000000E+00  0.00000000E+00
  0.00000000E+00  0.00000000E+00  0.00000000E+00
  0.00000000E+00  0.00000000E+00  0.00000000E+00
  0.00000000E+00  0.00000000E+00  0.00000000E+00
  0.00000000E+00  0.00000000E+00  0.00000000E+00
  0.00000000E+00  0.00000000E+00  0.00000000E+00
  0.00000000E+00  0.00000000E+00  0.00000000E+00
  0.00000000E+00  0.00000000E+00  0.00000000E+00
  0.00000000E+00  0.00000000E+00  0.00000000E+00
  0.00000000E+00  0.00000000E+00  0.00000000E+00
  0.00000000E+00  0.00000000E+00  0.00000000E+00
  0.00000000E+00  0.00000000E+00  0.00000000E+00
  0.00000000E+00  0.00000000E+00  0.00000000E+00
  0.00000000E+00  0.00000000E+00  0.00000000E+00
  0.00000000E+00  0.00000000E+00  0.00000000E+00
  0.00000000E+00  0.00000000E+00  0.00000000E+00
  0.00000000E+00  0.00000000E+00  0.00000000E+00
  0.00000000E+00  0.00000000E+00  0.00000000E+00
  0.00000000E+00  0.00000000E+00  0.00000000E+00
  0.00000000E+00  0.00000000E+00  0.00000000E+00
  0.00000000E+00  0.00000000E+00  0.00000000E+00
  0.00000000E+00  0.00000000E+00  0.00000000E+00
  0.00000000E+00  0.00000000E+00  0.00000000E+00
  0.00000000E+00  0.00000000E+00  0.00000000E+00
  0.00000000E+00  0.00000000E+00  0.00000000E+00
  0.00000000E+00  0.00000000E+00  0.00000000E+00
  0.00000000E+00  0.00000000E+00  0.00000000E+00
  0.00000000E+00  0.00000000E+00  0.00000000E+00
  0.00000000E+00  0.00000000E+00  0.00000000E+00
  0.00000000E+00  0.00000000E+00  0.00000000E+00
  0.00000000E+00  0.00000000E+00  0.00000000E+00
  0.00000000E+00  0.00000000E+00  0.00000000E+00
  0.00000000E+00  0.00000000E+00  0.00000000E+00
  0.00000000E+00  0.00000000E+00  0.00000000E+00
  0.00000000E+00  0.00000000E+00  0.00000000E+00
  0.00000000E+00  0.00000000E+00  0.00000000E+00
  0.00000000E+00  0.00000000E+00  0.00000000E+00
  0.00000000E+00  0.00000000E+00  0.00000000E+00
  0.00000000E+00  0.00000000E+00  0.00000000E+00
  0.00000000E+00  0.00000000E+00  0.00000000E+00
  0.00000000E+00  0.00000000E+00  0.00000000E+00
  0.00000000E+00  0.00000000E+00  0.00000000E+00
  0.00000000E+00  0.00000000E+00  0.00000000E+00
  0.00000000E+00  0.00000000E+00  0.00000000E+00
  0.00000000E+00  0.00000000E+00  0.00000000E+00
  0.00000000E+00  0.00000000E+00  0.00000000E+00
  0.00000000E+00  0.00000000E+00  0.00000000E+00
  0.00000000E+00  0.00000000E+00  0.00000000E+00
  0.00000000E+00  0.00000000E+00  0.00000000E+00
  0.00000000E+00  0.00000000E+00  0.00000000E+00
  0.00000000E+00  0.00000000E+00  0.00000000E+00
  0.00000000E+00  0.00000000E+00  0.00000000E+00
  0.00000000E+00  0.00000000E+00  0.00000000E+00
  0.00000000E+00  0.00000000E+00  0.00000000E+00
  0.00000000E+00  0.00000000E+00  0.00000000E+00
  0.00000000E+00  0.00000000E+00  0.00000000E+00
  0.00000000E+00  0.00000000E+00  0.00000000E+00
  0.00000000E+00  0.00000000E+00  0.00000000E+00
  0.00000000E+00  0.00000000E+00  0.00000000E+00
  0.00000000E+00  0.00000000E+00  0.00000000E+00
  0.00000000E+00  0.00000000E+00  0.00000000E+00
  0.00000000E+00  0.00000000E+00  0.00000000E+00
  0.00000000E+00  0.00000000E+00  0.00000000E+00
  0.00000000E+00  0.00000000E+00  0.00000000E+00
  0.00000000E+00  0.00000000E+00  0.00000000E+00
  0.00000000E+00  0.00000000E+00  0.00000000E+00
  0.00000000E+00  0.00000000E+00  0.00000000E+00
  0.00000000E+00  0.00000000E+00  0.00000000E+00
  0.00000000E+00  0.00000000E+00  0.00000000E+00
  0.00000000E+00  0.00000000E+00  0.00000000E+00
  0.00000000E+00  0.00000000E+00  0.00000000E+00
  0.00000000E+00  0.00000000E+00  0.00000000E+00
  0.00000000E+00  0.00000000E+00  0.00000000E+00
  0.00000000E+00  0.00000000E+00  0.00000000E+00
  0.00000000E+00  0.00000000E+00  0.00000000E+00
  0.00000000E+00  0.00000000E+00  0.00000000E+00
  0.00000000E+00  0.00000000E+00  0.00000000E+00
  0.00000000E+00  0.00000000E+00  0.00000000E+00
  0.00000000E+00  0.00000000E+00  0.00000000E+00
  0.00000000E+00  0.00000000E+00  0.00000000E+00
  0.00000000E+00  0.00000000E+00  0.00000000E+00
  0.00000000E+00  0.00000000E+00  0.00000000E+00
  0.00000000E+00  0.00000000E+00  0.00000000E+00
  0.00000000E+00  0.00000000E+00  0.00000000E+00
  0.00000000E+00  0.00000000E+00  0.00000000E+00
  0.00000000E+00  0.00000000E+00  0.00000000E+00
  0.00000000E+00  0.00000000E+00  0.00000000E+00
  0.00000000E+00  0.00000000E+00  0.00000000E+00
  0.00000000E+00  0.00000000E+00  0.00000000E+00
  0.00000000E+00  0.00000000E+00  0.00000000E+00
  0.00000000E+00  0.00000000E+00  0.00000000E+00
  0.00000000E+00  0.00000000E+00  0.00000000E+00
  0.00000000E+00  0.00000000E+00  0.00000000E+00
  0.00000000E+00  0.00000000E+00  0.00000000E+00
  0.00000000E+00  0.00000000E+00  0.00000000E+00
  0.00000000E+00  0.00000000E+00  0.00000000E+00
  0.00000000E+00  0.00000000E+00  0.00000000E+00
  0.00000000E+00  0.00000000E+00  0.00000000E+00
  0.00000000E+00  0.00000000E+00  0.00000000E+00
  0.00000000E+00  0.00000000E+00  0.00000000E+00
  0.00000000E+00  0.00000000E+00  0.00000000E+00
  0.00000000E+00  0.00000000E+00  0.00000000E+00
  0.00000000E+00  0.00000000E+00  0.00000000E+00
  0.00000000E+00  0.00000000E+00  0.00000000E+00
  0.00000000E+00  0.00000000E+00  0.00000000E+00
  0.00000000E+00  0.00000000E+00  0.00000000E+00
  0.00000000E+00  0.00000000E+00  0.00000000E+00
  0.00000000E+00  0.00000000E+00  0.00000000E+00
  0.00000000E+00  0.00000000E+00  0.00000000E+00
  0.00000000E+00  0.00000000E+00  0.00000000E+00
  0.00000000E+00  0.00000000E+00  0.00000000E+00
  0.00000000E+00  0.00000000E+00  0.00000000E+00
  0.00000000E+00  0.00000000E+00  0.00000000E+00
  0.00000000E+00  0.00000000E+00  0.00000000E+00
  0.00000000E+00  0.00000000E+00  0.00000000E+00
  0.00000000E+00  0.00000000E+00  0.00000000E+00
  0.00000000E+00  0.00000000E+00  0.00000000E+00
  0.00000000E+00  0.00000000E+00  0.00000000E+00
  0.00000000E+00  0.00000000E+00  0.00000000E+00
  0.00000000E+00  0.00000000E+00  0.00000000E+00
  0.00000000E+00  0.00000000E+00  0.00000000E+00
  0.00000000E+00  0.00000000E+00  0.00000000E+00
  0.00000000E+00  0.00000000E+00  0.00000000E+00
  0.00000000E+00  0.00000000E+00  0.00000000E+00
  0.00000000E+00  0.00000000E+00  0.00000000E+00
  0.00000000E+00  0.00000000E+00  0.00000000E+00
  0.00000000E+00  0.00000000E+00  0.00000000E+00
  0.00000000E+00  0.00000000E+00  0.00000000E+00
  0.00000000E+00  0.00000000E+00  0.00000000E+00
  0.00000000E+00  0.00000000E+00  0.00000000E+00
  0.00000000E+00  0.00000000E+00  0.00000000E+00
  0.00000000E+00  0.00000000E+00  0.00000000E+00
  0.00000000E+00  0.00000000E+00  0.00000000E+00
  0.00000000E+00  0.00000000E+00  0.00000000E+00
  0.00000000E+00  0.00000000E+00  0.00000000E+00
  0.00000000E+00  0.00000000E+00  0.00000000E+00
  0.00000000E+00  0.00000000E+00  0.00000000E+00
  0.00000000E+00  0.00000000E+00  0.00000000E+00
  0.00000000E+00  0.00000000E+00  0.00000000E+00
  0.00000000E+00  0.00000000E+00  0.00000000E+00
  0.00000000E+00  0.00000000E+00  0.00000000E+00
  0.00000000E+00  0.00000000E+00  0.00000000E+00
  0.00000000E+00  0.00000000E+00  0.00000000E+00
  0.00000000E+00  0.00000000E+00  0.00000000E+00
  0.00000000E+00  0.00000000E+00  0.00000000E+00
  0.00000000E+00  0.00000000E+00  0.00000000E+00
  0.00000000E+00  0.00000000E+00  0.00000000E+00
  0.00000000E+00  0.00000000E+00  0.00000000E+00
  0.00000000E+00  0.00000000E+00  0.00000000E+00
  0.00000000E+00  0.00000000E+00  0.00000000E+00
  0.00000000E+00  0.00000000E+00  0.00000000E+00
  0.00000000E+00  0.00000000E+00  0.00000000E+00
  0.00000000E+00  0.00000000E+00  0.00000000E+00
  0.00000000E+00  0.00000000E+00  0.00000000E+00
  0.00000000E+00  0.00000000E+00  0.00000000E+00
  0.00000000E+00  0.00000000E+00  0.00000000E+00
  0.00000000E+00  0.00000000E+00  0.00000000E+00
  0.00000000E+00  0.00000000E+00  0.00000000E+00
  0.00000000E+00  0.00000000E+00  0.00000000E+00
  0.00000000E+00  0.00000000E+00  0.00000000E+00
  0.00000000E+00  0.00000000E+00  0.00000000E+00
  0.00000000E+00  0.00000000E+00  0.00000000E+00
  0.00000000E+00  0.00000000E+00  0.00000000E+00
  0.00000000E+00  0.00000000E+00  0.00000000E+00
  0.00000000E+00  0.00000000E+00  0.00000000E+00
  0.00000000E+00  0.00000000E+00  0.00000000E+00
  0.00000000E+00  0.00000000E+00  0.00000000E+00
  0.00000000E+00  0.00000000E+00  0.00000000E+00
  0.00000000E+00  0.00000000E+00  0.00000000E+00
  0.00000000E+00  0.00000000E+00  0.00000000E+00
  0.00000000E+00  0.00000000E+00  0.00000000E+00
  0.00000000E+00  0.00000000E+00  0.00000000E+00
  0.00000000E+00  0.00000000E+00  0.00000000E+00
  0.00000000E+00  0.00000000E+00  0.00000000E+00
  0.00000000E+00  0.00000000E+00  0.00000000E+00
  0.00000000E+00  0.00000000E+00  0.00000000E+00
  0.00000000E+00  0.00000000E+00  0.00000000E+00
  0.00000000E+00  0.00000000E+00  0.00000000E+00
  0.00000000E+00  0.00000000E+00  0.00000000E+00
  0.00000000E+00  0.00000000E+00  0.00000000E+00
  0.00000000E+00  0.00000000E+00  0.00000000E+00
  0.00000000E+00  0.00000000E+00  0.00000000E+00
  0.00000000E+00  0.00000000E+00  0.00000000E+00
  0.00000000E+00  0.00000000E+00  0.00000000E+00
  0.00000000E+00  0.00000000E+00  0.00000000E+00
  0.00000000E+00  0.00000000E+00  0.00000000E+00
  0.00000000E+00  0.00000000E+00  0.00000000E+00
  0.00000000E+00  0.00000000E+00  0.00000000E+00
  0.00000000E+00  0.00000000E+00  0.00000000E+00
  0.00000000E+00  0.00000000E+00  0.00000000E+00
  0.00000000E+00  0.00000000E+00  0.00000000E+00
  0.00000000E+00  0.00000000E+00  0.00000000E+00
  0.00000000E+00  0.00000000E+00  0.00000000E+00
  0.00000000E+00  0.00000000E+00  0.00000000E+00
  0.00000000E+00  0.00000000E+00  0.00000000E+00
  0.00000000E+00  0.00000000E+00  0.00000000E+00
  0.00000000E+00  0.00000000E+00  0.00000000E+00
  0.00000000E+00  0.00000000E+00  0.00000000E+00
  0.00000000E+00  0.00000000E+00  0.00000000E+00
  0.00000000E+00  0.00000000E+00  0.00000000E+00
  0.00000000E+00  0.00000000E+00  0.00000000E+00
