x3                                      
   1.00000000000000     
    10.6822376251000009    0.0000000000000000    0.0000000000000000
    -0.0000014224000000   10.6822347641000004    0.0000000000000000
    -0.0000014224000000   -0.0000085346000000   10.6822347641000004
   N    C 
     1   214
Direct
  0.5503032066923268  0.3835239421200072  0.5502312724518248
  0.9581834300035226  0.7915704404620669  0.1250678236384104
  0.3754466646470505  0.5415423328319307  0.8748992616097411
  0.2917254391969379  0.1249584973847178  0.7911144420664016
  0.2927611848987368  0.6240398888395049  0.6248172187791141
  0.3754742893652931  0.7083272781951564  0.7082471695312265
  0.4620342080466315  0.4583360558859937  0.6251787969534561
  0.5425231458515114  0.5430932597151426  0.7097647230009656
  0.4587695954602822  0.6256541004181031  0.7923009372952308
  0.5419466275570173  0.7087883994823656  0.8754260343202418
  0.6249038142901640  0.7915400595861399  0.1253778224920268
  0.7079440771659549  0.8751311586837787  0.2086248020776225
  0.6248730688364077  0.9587249015558541  0.9581579555352278
  0.7079435921648027  0.0419245132265615  0.0417740233022599
  0.7916306182133184  0.7918975369760517  0.9585420538868377
  0.8748299764606458  0.8751332343251264  0.0417918797299350
  0.7912644095566321  0.9584076948390958  0.1250837490227354
  0.8744300097721975  0.0417422992305347  0.2084396105221629
  0.6248750376377430  0.7920207937051345  0.4583626124277131
  0.7081716275751262  0.8755539987570842  0.5415737900187381
  0.6245797775086928  0.9587330780090184  0.2916872706943892
  0.7082394192406198  0.0415698024209021  0.3755230548008299
  0.7913871355757109  0.7916598712185134  0.2917893972812635
  0.8748313229029634  0.8749364515014975  0.3751235675854687
  0.7914561155613455  0.9584388495343958  0.4579510483259170
  0.8742960218479254  0.0421606653622604  0.5413270349063097
  0.2928055789618114  0.4579919470294840  0.7906153679968924
  0.6251219732260296  0.7922894618306699  0.7917954218191667
  0.5418975468500591  0.7086315889488048  0.5418322539652749
  0.5410078025178322  0.5402353137926212  0.3766497552642747
  0.3750604665726414  0.2082397228143904  0.8745889784419205
  0.2925683569424464  0.2900068689323660  0.6235475821788796
  0.3764663971174258  0.3739801882101759  0.7067059128466937
  0.4572085098729133  0.1264889968150200  0.6225960773986969
  0.5407747298729291  0.2097469466784148  0.7067347617563868
  0.4585316268946258  0.2917288866953029  0.7911328995145510
  0.5418494546662913  0.3750618012142013  0.8752047698044478
  0.2916001991627724  0.4578907930069107  0.1247684249254846
  0.3751731999049284  0.5417878718686637  0.2079081730155821
  0.2918415549600795  0.6247933095836373  0.9581681497956609
  0.3750945633692240  0.7082852610144528  0.0415115883220878
  0.4584704457389819  0.4581749115024465  0.9585047036683036
  0.5417453452781587  0.5414151683597836  0.0420969602756074
  0.4583122681222278  0.6249674685576991  0.1249603150364678
  0.5414817770385199  0.7078935889790188  0.2088834681806873
  0.2924908575260048  0.4567167804755528  0.4577694999004081
  0.3766953597869005  0.5402548765552950  0.5409711941581037
  0.2916906484420423  0.6247407151692528  0.2916281538678547
  0.3750873487149349  0.7080878233704198  0.3750040093583138
  0.4580317201786386  0.4563076005254416  0.2926982792631847
  0.4585775028592209  0.6246195401780525  0.4585081206129544
  0.5476082776569484  0.2027726198837598  0.3683806833318997
  0.7082993473076371  0.8755260283118886  0.8750194638887905
  0.7078246181172219  0.0423918518912032  0.7077390943960538
  0.8754104098764728  0.3752121852108132  0.8754357733235807
  0.6245192485466831  0.4575719127727425  0.1259117947414552
  0.7079032911095879  0.5410793373090783  0.2090698647650413
  0.6251531282032943  0.6251634243987425  0.9589052853723530
  0.7083088743393446  0.7083778691144573  0.0421770756661815
  0.7917931754639227  0.4583880075087592  0.9589415202543989
  0.8749737262819437  0.5416326717464273  0.0421474799697208
  0.7914364801640943  0.6247824108511182  0.1255823667115976
  0.8747828628478089  0.7082172841733509  0.2086033398538447
  0.6252473285042299  0.4581823349153780  0.4617874164599272
  0.7097352234009335  0.5430318291647040  0.5424344979168794
  0.6248395695635551  0.6240276824997366  0.2927261237253873
  0.7082530609332807  0.7083584832686682  0.3754206227163834
  0.7904911721476893  0.4577894827737907  0.2928179697835418
  0.8748185102002779  0.5414813424955227  0.3753735268379259
  0.7922907994526227  0.6256565351047456  0.4587204904381892
  0.8754043502885125  0.7087936353998430  0.5419129824027706
  0.6256552312137416  0.4589019413463760  0.7926977636297465
  0.7088168522392806  0.5421152768807573  0.8757915639971188
  0.6256505171143445  0.6260379335475861  0.6256043983357529
  0.7088143780983316  0.7091518624417574  0.7087932559017887
  0.7927011294377095  0.4589079901270736  0.6256135451468054
  0.8757694364799775  0.5421195607533704  0.7087998027531199
  0.7922957967584239  0.2919994679313476  0.7923079731192146
  0.6243882763167932  0.9593452959900475  0.6242139028915048
  0.8748352548565919  0.2086513059800126  0.7081568487798791
  0.7097086422569490  0.3756935549276506  0.7096719947070511
  0.7917796601814828  0.7923091652623881  0.6250665017622481
  0.8749810802028435  0.8755067234174732  0.7082921637299791
  0.7914114121029385  0.9589292438291253  0.7914137607818148
  0.8747909633611570  0.0419201269851612  0.8748482503311408
  0.6245942425640862  0.1249695711053320  0.1254247882820536
  0.7083934255672304  0.2088725791668153  0.2081096241120335
  0.6248927821402006  0.2916575313844731  0.9586106019074521
  0.7082248315563220  0.3748435109715516  0.0421597793675446
  0.7913767355586288  0.1250861018407932  0.9582912620882098
  0.8748431937272798  0.2083976136620933  0.0415690453415394
  0.7915372137076844  0.2912486239461529  0.1250495735088393
  0.8742961126266593  0.3746193938777935  0.2088520066124815
  0.6227120364477372  0.1267632803571956  0.4559994447176408
  0.7065017641196221  0.2095553390288956  0.5403321866306925
  0.6232243506168871  0.2890453366430847  0.2930571492962954
  0.7064557722803713  0.3735667005081993  0.3762183755126642
  0.7907189302042781  0.1250496831686547  0.2917493244804987
  0.8743201217229100  0.2082083885119914  0.3749464037155832
  0.7909053077819266  0.2916409100536796  0.4583680517687228
  0.8750608878627730  0.3749942372468382  0.5417144485814589
  0.6247123010255535  0.1260610847059596  0.7905983253929776
  0.7082216833075066  0.2086713721327200  0.8749480022226805
  0.6251553836721655  0.2949078232128528  0.6249437070874109
  0.7904802230837618  0.1261116737944477  0.6244906055002062
  0.4596256042560185  0.1259443745062185  0.2927064940356914
  0.3677197591298480  0.3801460731972028  0.3682895063711982
  0.2918832169470136  0.2908071825500897  0.2916961894507324
  0.1248963770820879  0.1248214269960357  0.9580336033969914
  0.2082414392552181  0.2080393855323237  0.0413281559292145
  0.1243507687653960  0.2913152854625238  0.1243573684684947
  0.2074373921245254  0.3743143322972386  0.2073929201802684
  0.9578910761997363  0.1251043059044576  0.4581311783231143
  0.0416470051017725  0.2082045355887132  0.5413985573099538
  0.9578612381418452  0.2913981826549659  0.2918070467728455
  0.0415902195476718  0.3746062384487558  0.3750082422761807
  0.1248301478103997  0.1248416793168374  0.2916091118585769
  0.2083469666397662  0.2078430313504356  0.3749550802778430
  0.1253293411477401  0.2912697797468340  0.4580640629066224
  0.2092277483866170  0.3740309418410916  0.5412725779255183
  0.9581763020495444  0.1250927103697421  0.7914061480287771
  0.0414779168557615  0.2083629237969689  0.8749338611658928
  0.9584627891985278  0.2917039627028046  0.6248609631863076
  0.0420363799963610  0.3749158271441075  0.7082030582574390
  0.1250505216454485  0.1248746889291255  0.6245802854268376
  0.2078084167931991  0.2086609223953531  0.7086525191578659
  0.1248958421262216  0.2914278391857721  0.7916891669819535
  0.2088800763476257  0.3746968558157633  0.8744234008061227
  0.9579746963121210  0.4581133123696617  0.1253556273972833
  0.0414640954539962  0.5414210405288955  0.2084263565167817
  0.9585187920833178  0.6249697700140544  0.9585347660122707
  0.0413918077452848  0.3748037635468506  0.0414164830742578
  0.0417210587549377  0.7082538754635550  0.0417300002348640
  0.9582668085743080  0.2915741336556010  0.9583406327363093
  0.9579174691236929  0.1248164745492133  0.1249242221141600
  0.0414884660287385  0.8749169157572965  0.2082897157496006
  0.9581846347529250  0.9583907626187127  0.9582133598324418
  0.0415017817043122  0.0415974641222903  0.0415598615121198
  0.1250781400838434  0.7915629063210403  0.9582051024732365
  0.2083081397785733  0.8748955806338827  0.0415245282690364
  0.1248983749588390  0.9582132277342268  0.1248921594466381
  0.2083227804539192  0.0414841390226925  0.2082401137730372
  0.9582615183880350  0.7917086821759725  0.4583129778002899
  0.0413971771528026  0.8747755905459513  0.5414609198956697
  0.9579297646649607  0.9582634375539811  0.2915455025981686
  0.0412587191500080  0.0414381074214631  0.3748454351165975
  0.1248925520515058  0.7914657653145696  0.2915620780813057
  0.2082454908277214  0.8747693646163910  0.3747933279511884
  0.1244057618437040  0.9577244533771747  0.4581738614264879
  0.2075082344147035  0.0407644793658548  0.5408921638887705
  0.9585201799975209  0.7918911282280092  0.7916309294186163
  0.0417462232963857  0.8750967079851932  0.8748783613743214
  0.9580222388240500  0.9587070805955804  0.6248047072172014
  0.0415713909884090  0.0418111271294919  0.7080222240863492
  0.1253377965101592  0.7914664721587457  0.6248799530828606
  0.2085459171659778  0.8749545232758109  0.7080255410379692
  0.1250353639191957  0.9583525342528176  0.7913164369072518
  0.2083524595270418  0.0416200938675928  0.8746439029434399
  0.0412190243080559  0.2080615633307232  0.2081763842204012
  0.1253326110971713  0.4581578415458409  0.9580354664245121
  0.2084597895829106  0.5414253794215327  0.0414888870812078
  0.1250006432108606  0.6246908785031167  0.1249951697002132
  0.3753855519983489  0.0422032543966324  0.3747868957227780
  0.4583017401287393  0.7915675118363481  0.2918191406382888
  0.5414761189864592  0.8753147761714075  0.3749551885804436
  0.4581791539430284  0.9590208994217448  0.4579807854073650
  0.5410947153861301  0.0430587902520259  0.5404314309030624
  0.2918308413149262  0.7915835835707270  0.7914341958772511
  0.3751421273979076  0.8748825279339485  0.8749062701076582
  0.2916542705304153  0.9583576738614354  0.6245681608069944
  0.3753741185764881  0.0413750626959910  0.7083326005755879
  0.4584442594600731  0.7919487364483260  0.6248474589859825
  0.5417034404556134  0.8755203354688845  0.7080887681675208
  0.4581690754439123  0.9583463765942568  0.7915465562189326
  0.5414415497578133  0.0421712865527226  0.8744431963794028
  0.2918256708780191  0.1248984365696657  0.1249670009883985
  0.3754423196962620  0.2077316734477179  0.2086108356727081
  0.2918378241111128  0.2914535278957757  0.9580214184104676
  0.3751435393448546  0.3745644199635620  0.0417228037595052
  0.4582721447391833  0.1251025120350704  0.9581166786268795
  0.5415159244672196  0.2081720815341725  0.0418874181243751
  0.4582132920710080  0.2912133341486012  0.1255281331371947
  0.5414719891468636  0.3735874315749044  0.2095217928844093
  0.2923601746060385  0.1254045043787784  0.4585026835906802
  0.3676538700386232  0.2026672503870159  0.5471137180326835
  0.2919027161766365  0.9584125787217346  0.2917405382370930
  0.3751219727375741  0.8752065026369351  0.5413196311905395
  0.2918519680287588  0.7914983396502819  0.4582158120060456
  0.5408476811154159  0.0410010523508220  0.2077006073444849
  0.2082656136662635  0.7081214484562111  0.2082304908012276
  0.9584317684851626  0.4581727828623130  0.4584340203853117
  0.0420095537148413  0.5414765262807535  0.5416859158554743
  0.9581302371748492  0.6247754576956837  0.2918070564194153
  0.0414737218718031  0.7083016469974055  0.3750433130118012
  0.1247719198167374  0.4578886681931493  0.2915405856419326
  0.2077942085959066  0.5419541767897798  0.3751115557053240
  0.1249022596046458  0.6250269784030351  0.4582725792461986
  0.2089014934617310  0.7078733122705287  0.5414430911607795
  0.9588850996424370  0.4584283495883881  0.7918266136483609
  0.0421362154594291  0.5416440197374186  0.8749898604861599
  0.7920787182840812  0.6254254166071078  0.7920820130320649
  0.9588694532954989  0.6251814678924745  0.6251370781643644
  0.1257644592267653  0.4577717131026660  0.6245412346311952
  0.2090724345747290  0.5411721302653234  0.7079078787467452
  0.1255651013956154  0.6248075782145932  0.7914645682404782
  0.2086130674880451  0.7081945566424039  0.8748174015065047
  0.2916309265177475  0.7914828173003912  0.1248976221607876
  0.3749243575168748  0.8748002594679036  0.2081645001540409
  0.2916213704546351  0.9582389992169951  0.9580623024313226
  0.3749543809340423  0.0414238712109949  0.0413986501132086
  0.4583918295560849  0.7916986942928759  0.9583249559502036
  0.5414665006396575  0.8748208612130810  0.0414663294078181
  0.4583919586771898  0.9578440929911807  0.1245290265332599
  0.0421468651466341  0.7083553132684770  0.7083129925397031
  0.8752696087754828  0.7086348158928928  0.8752840655863992
 
  0.00000000E+00  0.00000000E+00  0.00000000E+00
  0.00000000E+00  0.00000000E+00  0.00000000E+00
  0.00000000E+00  0.00000000E+00  0.00000000E+00
  0.00000000E+00  0.00000000E+00  0.00000000E+00
  0.00000000E+00  0.00000000E+00  0.00000000E+00
  0.00000000E+00  0.00000000E+00  0.00000000E+00
  0.00000000E+00  0.00000000E+00  0.00000000E+00
  0.00000000E+00  0.00000000E+00  0.00000000E+00
  0.00000000E+00  0.00000000E+00  0.00000000E+00
  0.00000000E+00  0.00000000E+00  0.00000000E+00
  0.00000000E+00  0.00000000E+00  0.00000000E+00
  0.00000000E+00  0.00000000E+00  0.00000000E+00
  0.00000000E+00  0.00000000E+00  0.00000000E+00
  0.00000000E+00  0.00000000E+00  0.00000000E+00
  0.00000000E+00  0.00000000E+00  0.00000000E+00
  0.00000000E+00  0.00000000E+00  0.00000000E+00
  0.00000000E+00  0.00000000E+00  0.00000000E+00
  0.00000000E+00  0.00000000E+00  0.00000000E+00
  0.00000000E+00  0.00000000E+00  0.00000000E+00
  0.00000000E+00  0.00000000E+00  0.00000000E+00
  0.00000000E+00  0.00000000E+00  0.00000000E+00
  0.00000000E+00  0.00000000E+00  0.00000000E+00
  0.00000000E+00  0.00000000E+00  0.00000000E+00
  0.00000000E+00  0.00000000E+00  0.00000000E+00
  0.00000000E+00  0.00000000E+00  0.00000000E+00
  0.00000000E+00  0.00000000E+00  0.00000000E+00
  0.00000000E+00  0.00000000E+00  0.00000000E+00
  0.00000000E+00  0.00000000E+00  0.00000000E+00
  0.00000000E+00  0.00000000E+00  0.00000000E+00
  0.00000000E+00  0.00000000E+00  0.00000000E+00
  0.00000000E+00  0.00000000E+00  0.00000000E+00
  0.00000000E+00  0.00000000E+00  0.00000000E+00
  0.00000000E+00  0.00000000E+00  0.00000000E+00
  0.00000000E+00  0.00000000E+00  0.00000000E+00
  0.00000000E+00  0.00000000E+00  0.00000000E+00
  0.00000000E+00  0.00000000E+00  0.00000000E+00
  0.00000000E+00  0.00000000E+00  0.00000000E+00
  0.00000000E+00  0.00000000E+00  0.00000000E+00
  0.00000000E+00  0.00000000E+00  0.00000000E+00
  0.00000000E+00  0.00000000E+00  0.00000000E+00
  0.00000000E+00  0.00000000E+00  0.00000000E+00
  0.00000000E+00  0.00000000E+00  0.00000000E+00
  0.00000000E+00  0.00000000E+00  0.00000000E+00
  0.00000000E+00  0.00000000E+00  0.00000000E+00
  0.00000000E+00  0.00000000E+00  0.00000000E+00
  0.00000000E+00  0.00000000E+00  0.00000000E+00
  0.00000000E+00  0.00000000E+00  0.00000000E+00
  0.00000000E+00  0.00000000E+00  0.00000000E+00
  0.00000000E+00  0.00000000E+00  0.00000000E+00
  0.00000000E+00  0.00000000E+00  0.00000000E+00
  0.00000000E+00  0.00000000E+00  0.00000000E+00
  0.00000000E+00  0.00000000E+00  0.00000000E+00
  0.00000000E+00  0.00000000E+00  0.00000000E+00
  0.00000000E+00  0.00000000E+00  0.00000000E+00
  0.00000000E+00  0.00000000E+00  0.00000000E+00
  0.00000000E+00  0.00000000E+00  0.00000000E+00
  0.00000000E+00  0.00000000E+00  0.00000000E+00
  0.00000000E+00  0.00000000E+00  0.00000000E+00
  0.00000000E+00  0.00000000E+00  0.00000000E+00
  0.00000000E+00  0.00000000E+00  0.00000000E+00
  0.00000000E+00  0.00000000E+00  0.00000000E+00
  0.00000000E+00  0.00000000E+00  0.00000000E+00
  0.00000000E+00  0.00000000E+00  0.00000000E+00
  0.00000000E+00  0.00000000E+00  0.00000000E+00
  0.00000000E+00  0.00000000E+00  0.00000000E+00
  0.00000000E+00  0.00000000E+00  0.00000000E+00
  0.00000000E+00  0.00000000E+00  0.00000000E+00
  0.00000000E+00  0.00000000E+00  0.00000000E+00
  0.00000000E+00  0.00000000E+00  0.00000000E+00
  0.00000000E+00  0.00000000E+00  0.00000000E+00
  0.00000000E+00  0.00000000E+00  0.00000000E+00
  0.00000000E+00  0.00000000E+00  0.00000000E+00
  0.00000000E+00  0.00000000E+00  0.00000000E+00
  0.00000000E+00  0.00000000E+00  0.00000000E+00
  0.00000000E+00  0.00000000E+00  0.00000000E+00
  0.00000000E+00  0.00000000E+00  0.00000000E+00
  0.00000000E+00  0.00000000E+00  0.00000000E+00
  0.00000000E+00  0.00000000E+00  0.00000000E+00
  0.00000000E+00  0.00000000E+00  0.00000000E+00
  0.00000000E+00  0.00000000E+00  0.00000000E+00
  0.00000000E+00  0.00000000E+00  0.00000000E+00
  0.00000000E+00  0.00000000E+00  0.00000000E+00
  0.00000000E+00  0.00000000E+00  0.00000000E+00
  0.00000000E+00  0.00000000E+00  0.00000000E+00
  0.00000000E+00  0.00000000E+00  0.00000000E+00
  0.00000000E+00  0.00000000E+00  0.00000000E+00
  0.00000000E+00  0.00000000E+00  0.00000000E+00
  0.00000000E+00  0.00000000E+00  0.00000000E+00
  0.00000000E+00  0.00000000E+00  0.00000000E+00
  0.00000000E+00  0.00000000E+00  0.00000000E+00
  0.00000000E+00  0.00000000E+00  0.00000000E+00
  0.00000000E+00  0.00000000E+00  0.00000000E+00
  0.00000000E+00  0.00000000E+00  0.00000000E+00
  0.00000000E+00  0.00000000E+00  0.00000000E+00
  0.00000000E+00  0.00000000E+00  0.00000000E+00
  0.00000000E+00  0.00000000E+00  0.00000000E+00
  0.00000000E+00  0.00000000E+00  0.00000000E+00
  0.00000000E+00  0.00000000E+00  0.00000000E+00
  0.00000000E+00  0.00000000E+00  0.00000000E+00
  0.00000000E+00  0.00000000E+00  0.00000000E+00
  0.00000000E+00  0.00000000E+00  0.00000000E+00
  0.00000000E+00  0.00000000E+00  0.00000000E+00
  0.00000000E+00  0.00000000E+00  0.00000000E+00
  0.00000000E+00  0.00000000E+00  0.00000000E+00
  0.00000000E+00  0.00000000E+00  0.00000000E+00
  0.00000000E+00  0.00000000E+00  0.00000000E+00
  0.00000000E+00  0.00000000E+00  0.00000000E+00
  0.00000000E+00  0.00000000E+00  0.00000000E+00
  0.00000000E+00  0.00000000E+00  0.00000000E+00
  0.00000000E+00  0.00000000E+00  0.00000000E+00
  0.00000000E+00  0.00000000E+00  0.00000000E+00
  0.00000000E+00  0.00000000E+00  0.00000000E+00
  0.00000000E+00  0.00000000E+00  0.00000000E+00
  0.00000000E+00  0.00000000E+00  0.00000000E+00
  0.00000000E+00  0.00000000E+00  0.00000000E+00
  0.00000000E+00  0.00000000E+00  0.00000000E+00
  0.00000000E+00  0.00000000E+00  0.00000000E+00
  0.00000000E+00  0.00000000E+00  0.00000000E+00
  0.00000000E+00  0.00000000E+00  0.00000000E+00
  0.00000000E+00  0.00000000E+00  0.00000000E+00
  0.00000000E+00  0.00000000E+00  0.00000000E+00
  0.00000000E+00  0.00000000E+00  0.00000000E+00
  0.00000000E+00  0.00000000E+00  0.00000000E+00
  0.00000000E+00  0.00000000E+00  0.00000000E+00
  0.00000000E+00  0.00000000E+00  0.00000000E+00
  0.00000000E+00  0.00000000E+00  0.00000000E+00
  0.00000000E+00  0.00000000E+00  0.00000000E+00
  0.00000000E+00  0.00000000E+00  0.00000000E+00
  0.00000000E+00  0.00000000E+00  0.00000000E+00
  0.00000000E+00  0.00000000E+00  0.00000000E+00
  0.00000000E+00  0.00000000E+00  0.00000000E+00
  0.00000000E+00  0.00000000E+00  0.00000000E+00
  0.00000000E+00  0.00000000E+00  0.00000000E+00
  0.00000000E+00  0.00000000E+00  0.00000000E+00
  0.00000000E+00  0.00000000E+00  0.00000000E+00
  0.00000000E+00  0.00000000E+00  0.00000000E+00
  0.00000000E+00  0.00000000E+00  0.00000000E+00
  0.00000000E+00  0.00000000E+00  0.00000000E+00
  0.00000000E+00  0.00000000E+00  0.00000000E+00
  0.00000000E+00  0.00000000E+00  0.00000000E+00
  0.00000000E+00  0.00000000E+00  0.00000000E+00
  0.00000000E+00  0.00000000E+00  0.00000000E+00
  0.00000000E+00  0.00000000E+00  0.00000000E+00
  0.00000000E+00  0.00000000E+00  0.00000000E+00
  0.00000000E+00  0.00000000E+00  0.00000000E+00
  0.00000000E+00  0.00000000E+00  0.00000000E+00
  0.00000000E+00  0.00000000E+00  0.00000000E+00
  0.00000000E+00  0.00000000E+00  0.00000000E+00
  0.00000000E+00  0.00000000E+00  0.00000000E+00
  0.00000000E+00  0.00000000E+00  0.00000000E+00
  0.00000000E+00  0.00000000E+00  0.00000000E+00
  0.00000000E+00  0.00000000E+00  0.00000000E+00
  0.00000000E+00  0.00000000E+00  0.00000000E+00
  0.00000000E+00  0.00000000E+00  0.00000000E+00
  0.00000000E+00  0.00000000E+00  0.00000000E+00
  0.00000000E+00  0.00000000E+00  0.00000000E+00
  0.00000000E+00  0.00000000E+00  0.00000000E+00
  0.00000000E+00  0.00000000E+00  0.00000000E+00
  0.00000000E+00  0.00000000E+00  0.00000000E+00
  0.00000000E+00  0.00000000E+00  0.00000000E+00
  0.00000000E+00  0.00000000E+00  0.00000000E+00
  0.00000000E+00  0.00000000E+00  0.00000000E+00
  0.00000000E+00  0.00000000E+00  0.00000000E+00
  0.00000000E+00  0.00000000E+00  0.00000000E+00
  0.00000000E+00  0.00000000E+00  0.00000000E+00
  0.00000000E+00  0.00000000E+00  0.00000000E+00
  0.00000000E+00  0.00000000E+00  0.00000000E+00
  0.00000000E+00  0.00000000E+00  0.00000000E+00
  0.00000000E+00  0.00000000E+00  0.00000000E+00
  0.00000000E+00  0.00000000E+00  0.00000000E+00
  0.00000000E+00  0.00000000E+00  0.00000000E+00
  0.00000000E+00  0.00000000E+00  0.00000000E+00
  0.00000000E+00  0.00000000E+00  0.00000000E+00
  0.00000000E+00  0.00000000E+00  0.00000000E+00
  0.00000000E+00  0.00000000E+00  0.00000000E+00
  0.00000000E+00  0.00000000E+00  0.00000000E+00
  0.00000000E+00  0.00000000E+00  0.00000000E+00
  0.00000000E+00  0.00000000E+00  0.00000000E+00
  0.00000000E+00  0.00000000E+00  0.00000000E+00
  0.00000000E+00  0.00000000E+00  0.00000000E+00
  0.00000000E+00  0.00000000E+00  0.00000000E+00
  0.00000000E+00  0.00000000E+00  0.00000000E+00
  0.00000000E+00  0.00000000E+00  0.00000000E+00
  0.00000000E+00  0.00000000E+00  0.00000000E+00
  0.00000000E+00  0.00000000E+00  0.00000000E+00
  0.00000000E+00  0.00000000E+00  0.00000000E+00
  0.00000000E+00  0.00000000E+00  0.00000000E+00
  0.00000000E+00  0.00000000E+00  0.00000000E+00
  0.00000000E+00  0.00000000E+00  0.00000000E+00
  0.00000000E+00  0.00000000E+00  0.00000000E+00
  0.00000000E+00  0.00000000E+00  0.00000000E+00
  0.00000000E+00  0.00000000E+00  0.00000000E+00
  0.00000000E+00  0.00000000E+00  0.00000000E+00
  0.00000000E+00  0.00000000E+00  0.00000000E+00
  0.00000000E+00  0.00000000E+00  0.00000000E+00
  0.00000000E+00  0.00000000E+00  0.00000000E+00
  0.00000000E+00  0.00000000E+00  0.00000000E+00
  0.00000000E+00  0.00000000E+00  0.00000000E+00
  0.00000000E+00  0.00000000E+00  0.00000000E+00
  0.00000000E+00  0.00000000E+00  0.00000000E+00
  0.00000000E+00  0.00000000E+00  0.00000000E+00
  0.00000000E+00  0.00000000E+00  0.00000000E+00
  0.00000000E+00  0.00000000E+00  0.00000000E+00
  0.00000000E+00  0.00000000E+00  0.00000000E+00
  0.00000000E+00  0.00000000E+00  0.00000000E+00
  0.00000000E+00  0.00000000E+00  0.00000000E+00
  0.00000000E+00  0.00000000E+00  0.00000000E+00
  0.00000000E+00  0.00000000E+00  0.00000000E+00
  0.00000000E+00  0.00000000E+00  0.00000000E+00
  0.00000000E+00  0.00000000E+00  0.00000000E+00
  0.00000000E+00  0.00000000E+00  0.00000000E+00
  0.00000000E+00  0.00000000E+00  0.00000000E+00
  0.00000000E+00  0.00000000E+00  0.00000000E+00
  0.00000000E+00  0.00000000E+00  0.00000000E+00
  0.00000000E+00  0.00000000E+00  0.00000000E+00
