x3                                      
   1.00000000000000     
    10.6822376251000009    0.0000000000000000    0.0000000000000000
    -0.0000014224000000   10.6822347641000004    0.0000000000000000
    -0.0000014224000000   -0.0000085346000000   10.6822347641000004
   N    C 
     1   214
Direct
  0.5503032066923267  0.3835239421200051  0.5502312724518238
  0.9581834300035244  0.7915704404620650  0.1250678236384084
  0.3754466646470529  0.5415423328319288  0.8748992616097431
  0.2917254391969397  0.1249584973847166  0.7911144420664025
  0.2927611848987344  0.6240398888395016  0.6248172187791110
  0.3754742893652915  0.7083272781951547  0.7082471695312261
  0.4620342080466328  0.4583360558859902  0.6251787969534587
  0.5425231458515102  0.5430932597151430  0.7097647230009687
  0.4587695954602847  0.6256541004181048  0.7923009372952274
  0.5419466275570198  0.7087883994823680  0.8754260343202421
  0.6249038142901634  0.7915400595861399  0.1253778224920298
  0.7079440771659533  0.8751311586837759  0.2086248020776224
  0.6248730688364053  0.9587249015558561  0.9581579555352289
  0.7079435921648040  0.0419245132265638  0.0417740233022605
  0.7916306182133183  0.7918975369760499  0.9585420538868398
  0.8748299764606425  0.8751332343251267  0.0417918797299335
  0.7912644095566350  0.9584076948390987  0.1250837490227345
  0.8744300097722006  0.0417422992305349  0.2084396105221619
  0.6248750376377453  0.7920207937051353  0.4583626124277105
  0.7081716275751293  0.8755539987570808  0.5415737900187348
  0.6245797775086953  0.9587330780090175  0.2916872706943873
  0.7082394192406224  0.0415698024209045  0.3755230548008293
  0.7913871355757125  0.7916598712185116  0.2917893972812632
  0.8748313229029602  0.8749364515014990  0.3751235675854680
  0.7914561155613482  0.9584388495343928  0.4579510483259137
  0.8742960218479244  0.0421606653622587  0.5413270349063105
  0.2928055789618087  0.4579919470294806  0.7906153679968928
  0.6251219732260295  0.7922894618306716  0.7917954218191655
  0.5418975468500568  0.7086315889488033  0.5418322539652716
  0.5410078025178288  0.5402353137926196  0.3766497552642770
  0.3750604665726396  0.2082397228143908  0.8745889784419209
  0.2925683569424498  0.2900068689323686  0.6235475821788765
  0.3764663971174242  0.3739801882101729  0.7067059128466933
  0.4572085098729112  0.1264889968150212  0.6225960773986936
  0.5407747298729266  0.2097469466784116  0.7067347617563883
  0.4585316268946277  0.2917288866953053  0.7911328995145528
  0.5418494546662928  0.3750618012142048  0.8752047698044444
  0.2916001991627759  0.4578907930069118  0.1247684249254866
  0.3751731999049275  0.5417878718686662  0.2079081730155833
  0.2918415549600810  0.6247933095836389  0.9581681497956621
  0.3750945633692249  0.7082852610144528  0.0415115883220865
  0.4584704457389833  0.4581749115024459  0.9585047036683025
  0.5417453452781597  0.5414151683597835  0.0420969602756059
  0.4583122681222253  0.6249674685576958  0.1249603150364660
  0.5414817770385167  0.7078935889790221  0.2088834681806900
  0.2924908575260051  0.4567167804755526  0.4577694999004079
  0.3766953597868971  0.5402548765552938  0.5409711941581037
  0.2916906484420439  0.6247407151692523  0.2916281538678570
  0.3750873487149320  0.7080878233704174  0.3750040093583125
  0.4580317201786368  0.4563076005254427  0.2926982792631850
  0.4585775028592236  0.6246195401780531  0.4585081206129534
  0.5476082776569468  0.2027726198837571  0.3683806833319017
  0.7082993473076367  0.8755260283118921  0.8750194638887921
  0.7078246181172202  0.0423918518912019  0.7077390943960560
  0.8754104098764699  0.3752121852108156  0.8754357733235774
  0.6245192485466843  0.4575719127727439  0.1259117947414527
  0.7079032911095878  0.5410793373090789  0.2090698647650446
  0.6251531282032907  0.6251634243987426  0.9589052853723521
  0.7083088743393441  0.7083778691144590  0.0421770756661787
  0.7917931754639214  0.4583880075087566  0.9589415202543993
  0.8749737262819434  0.5416326717464259  0.0421474799697236
  0.7914364801640935  0.6247824108511157  0.1255823667115953
  0.8747828628478069  0.7082172841733517  0.2086033398538468
  0.6252473285042280  0.4581823349153805  0.4617874164599254
  0.7097352234009322  0.5430318291647049  0.5424344979168764
  0.6248395695635549  0.6240276824997334  0.2927261237253900
  0.7082530609332832  0.7083584832686667  0.3754206227163829
  0.7904911721476922  0.4577894827737911  0.2928179697835417
  0.8748185102002810  0.5414813424955255  0.3753735268379252
  0.7922907994526214  0.6256565351047432  0.4587204904381892
  0.8754043502885117  0.7087936353998421  0.5419129824027689
  0.6256552312137423  0.4589019413463786  0.7926977636297472
  0.7088168522392821  0.5421152768807551  0.8757915639971183
  0.6256505171143449  0.6260379335475877  0.6256043983357517
  0.7088143780983348  0.7091518624417595  0.7087932559017881
  0.7927011294377083  0.4589079901270728  0.6256135451468020
  0.8757694364799754  0.5421195607533684  0.7087998027531183
  0.7922957967584251  0.2919994679313509  0.7923079731192137
  0.6243882763167948  0.9593452959900473  0.6242139028915026
  0.8748352548565943  0.2086513059800126  0.7081568487798807
  0.7097086422569497  0.3756935549276474  0.7096719947070541
  0.7917796601814817  0.7923091652623868  0.6250665017622457
  0.8749810802028445  0.8755067234174746  0.7082921637299791
  0.7914114121029371  0.9589292438291246  0.7914137607818130
  0.8747909633611546  0.0419201269851589  0.8748482503311384
  0.6245942425640847  0.1249695711053328  0.1254247882820547
  0.7083934255672297  0.2088725791668122  0.2081096241120330
  0.6248927821401981  0.2916575313844705  0.9586106019074511
  0.7082248315563213  0.3748435109715537  0.0421597793675441
  0.7913767355586256  0.1250861018407922  0.9582912620882130
  0.8748431937272790  0.2083976136620920  0.0415690453415360
  0.7915372137076859  0.2912486239461540  0.1250495735088404
  0.8742961126266576  0.3746193938777948  0.2088520066124817
  0.6227120364477365  0.1267632803571926  0.4559994447176381
  0.7065017641196203  0.2095553390288944  0.5403321866306949
  0.6232243506168891  0.2890453366430855  0.2930571492962955
  0.7064557722803744  0.3735667005081991  0.3762183755126662
  0.7907189302042783  0.1250496831686549  0.2917493244804976
  0.8743201217229118  0.2082083885119925  0.3749464037155805
  0.7909053077819300  0.2916409100536790  0.4583680517687250
  0.8750608878627735  0.3749942372468388  0.5417144485814558
  0.6247123010255509  0.1260610847059622  0.7905983253929763
  0.7082216833075066  0.2086713721327171  0.8749480022226812
  0.6251553836721629  0.2949078232128551  0.6249437070874109
  0.7904802230837586  0.1261116737944493  0.6244906055002096
  0.4596256042560150  0.1259443745062170  0.2927064940356901
  0.3677197591298499  0.3801460731972037  0.3682895063711987
  0.2918832169470109  0.2908071825500911  0.2916961894507297
  0.1248963770820886  0.1248214269960365  0.9580336033969882
  0.2082414392552151  0.2080393855323241  0.0413281559292121
  0.1243507687653929  0.2913152854625243  0.1243573684684931
  0.2074373921245241  0.3743143322972403  0.2073929201802708
  0.9578910761997329  0.1251043059044579  0.4581311783231119
  0.0416470051017754  0.2082045355887121  0.5413985573099512
  0.9578612381418448  0.2913981826549652  0.2918070467728488
  0.0415902195476713  0.3746062384487584  0.3750082422761807
  0.1248301478103985  0.1248416793168408  0.2916091118585762
  0.2083469666397650  0.2078430313504364  0.3749550802778405
  0.1253293411477407  0.2912697797468365  0.4580640629066226
  0.2092277483866200  0.3740309418410940  0.5412725779255155
  0.9581763020495446  0.1250927103697396  0.7914061480287766
  0.0414779168557598  0.2083629237969653  0.8749338611658929
  0.9584627891985258  0.2917039627028047  0.6248609631863057
  0.0420363799963637  0.3749158271441095  0.7082030582574359
  0.1250505216454497  0.1248746889291250  0.6245802854268381
  0.2078084167931990  0.2086609223953536  0.7086525191578668
  0.1248958421262211  0.2914278391857713  0.7916891669819522
  0.2088800763476227  0.3746968558157632  0.8744234008061227
  0.9579746963121188  0.4581133123696629  0.1253556273972860
  0.0414640954539965  0.5414210405288922  0.2084263565167845
  0.9585187920833199  0.6249697700140522  0.9585347660122688
  0.0413918077452827  0.3748037635468494  0.0414164830742578
  0.0417210587549398  0.7082538754635577  0.0417300002348645
  0.9582668085743109  0.2915741336556024  0.9583406327363093
  0.9579174691236918  0.1248164745492122  0.1249242221141630
  0.0414884660287404  0.8749169157572946  0.2082897157496000
  0.9581846347529238  0.9583907626187114  0.9582133598324415
  0.0415017817043139  0.0415974641222927  0.0415598615121203
  0.1250781400838437  0.7915629063210403  0.9582051024732350
  0.2083081397785764  0.8748955806338815  0.0415245282690352
  0.1248983749588365  0.9582132277342252  0.1248921594466410
  0.2083227804539221  0.0414841390226955  0.2082401137730400
  0.9582615183880381  0.7917086821759711  0.4583129778002912
  0.0413971771528016  0.8747755905459491  0.5414609198956699
  0.9579297646649615  0.9582634375539824  0.2915455025981705
  0.0412587191500082  0.0414381074214658  0.3748454351165947
  0.1248925520515056  0.7914657653145708  0.2915620780813042
  0.2082454908277179  0.8747693646163878  0.3747933279511849
  0.1244057618437043  0.9577244533771726  0.4581738614264863
  0.2075082344147000  0.0407644793658538  0.5408921638887704
  0.9585201799975227  0.7918911282280116  0.7916309294186186
  0.0417462232963850  0.8750967079851957  0.8748783613743246
  0.9580222388240474  0.9587070805955812  0.6248047072171979
  0.0415713909884097  0.0418111271294937  0.7080222240863475
  0.1253377965101587  0.7914664721587457  0.6248799530828616
  0.2085459171659780  0.8749545232758141  0.7080255410379693
  0.1250353639191977  0.9583525342528210  0.7913164369072488
  0.2083524595270436  0.0416200938675924  0.8746439029434422
  0.0412190243080593  0.2080615633307198  0.2081763842203982
  0.1253326110971693  0.4581578415458400  0.9580354664245094
  0.2084597895829107  0.5414253794215341  0.0414888870812076
  0.1250006432108602  0.6246908785031147  0.1249951697002159
  0.3753855519983454  0.0422032543966358  0.3747868957227809
  0.4583017401287408  0.7915675118363502  0.2918191406382907
  0.5414761189864596  0.8753147761714093  0.3749551885804447
  0.4581791539430285  0.9590208994217428  0.4579807854073624
  0.5410947153861300  0.0430587902520247  0.5404314309030606
  0.2918308413149254  0.7915835835707298  0.7914341958772543
  0.3751421273979094  0.8748825279339458  0.8749062701076582
  0.2916542705304146  0.9583576738614358  0.6245681608069975
  0.3753741185764846  0.0413750626959881  0.7083326005755856
  0.4584442594600726  0.7919487364483239  0.6248474589859813
  0.5417034404556121  0.8755203354688879  0.7080887681675241
  0.4581690754439109  0.9583463765942593  0.7915465562189323
  0.5414415497578154  0.0421712865527254  0.8744431963794012
  0.2918256708780158  0.1248984365696690  0.1249670009883966
  0.3754423196962609  0.2077316734477196  0.2086108356727058
  0.2918378241111151  0.2914535278957732  0.9580214184104683
  0.3751435393448531  0.3745644199635593  0.0417228037595065
  0.4582721447391815  0.1251025120350680  0.9581166786268795
  0.5415159244672169  0.2081720815341755  0.0418874181243767
  0.4582132920710115  0.2912133341486045  0.1255281331371963
  0.5414719891468667  0.3735874315749054  0.2095217928844073
  0.2923601746060351  0.1254045043787782  0.4585026835906770
  0.3676538700386225  0.2026672503870138  0.5471137180326808
  0.2919027161766377  0.9584125787217361  0.2917405382370921
  0.3751219727375724  0.8752065026369332  0.5413196311905372
  0.2918519680287620  0.7914983396502848  0.4582158120060468
  0.5408476811154128  0.0410010523508224  0.2077006073444871
  0.2082656136662611  0.7081214484562131  0.2082304908012269
  0.9584317684851634  0.4581727828623114  0.4584340203853113
  0.0420095537148398  0.5414765262807554  0.5416859158554759
  0.9581302371748465  0.6247754576956850  0.2918070564194151
  0.0414737218718015  0.7083016469974046  0.3750433130117997
  0.1247719198167346  0.4578886681931503  0.2915405856419347
  0.2077942085959073  0.5419541767897765  0.3751115557053237
  0.1249022596046438  0.6250269784030337  0.4582725792462008
  0.2089014934617323  0.7078733122705306  0.5414430911607817
  0.9588850996424360  0.4584283495883915  0.7918266136483617
  0.0421362154594318  0.5416440197374152  0.8749898604861579
  0.7920787182840781  0.6254254166071080  0.7920820130320664
  0.9588694532955013  0.6251814678924720  0.6251370781643670
  0.1257644592267658  0.4577717131026663  0.6245412346311923
  0.2090724345747270  0.5411721302653226  0.7079078787467473
  0.1255651013956129  0.6248075782145908  0.7914645682404764
  0.2086130674880474  0.7081945566424031  0.8748174015065043
  0.2916309265177489  0.7914828173003906  0.1248976221607885
  0.3749243575168766  0.8748002594679044  0.2081645001540375
  0.2916213704546321  0.9582389992169965  0.9580623024313201
  0.3749543809340409  0.0414238712109941  0.0413986501132080
  0.4583918295560879  0.7916986942928760  0.9583249559502058
  0.5414665006396588  0.8748208612130789  0.0414663294078175
  0.4583919586771896  0.9578440929911796  0.1245290265332591
  0.0421468651466355  0.7083553132684746  0.7083129925397040
  0.8752696087754809  0.7086348158928900  0.8752840655864007
 
  0.00000000E+00  0.00000000E+00  0.00000000E+00
  0.00000000E+00  0.00000000E+00  0.00000000E+00
  0.00000000E+00  0.00000000E+00  0.00000000E+00
  0.00000000E+00  0.00000000E+00  0.00000000E+00
  0.00000000E+00  0.00000000E+00  0.00000000E+00
  0.00000000E+00  0.00000000E+00  0.00000000E+00
  0.00000000E+00  0.00000000E+00  0.00000000E+00
  0.00000000E+00  0.00000000E+00  0.00000000E+00
  0.00000000E+00  0.00000000E+00  0.00000000E+00
  0.00000000E+00  0.00000000E+00  0.00000000E+00
  0.00000000E+00  0.00000000E+00  0.00000000E+00
  0.00000000E+00  0.00000000E+00  0.00000000E+00
  0.00000000E+00  0.00000000E+00  0.00000000E+00
  0.00000000E+00  0.00000000E+00  0.00000000E+00
  0.00000000E+00  0.00000000E+00  0.00000000E+00
  0.00000000E+00  0.00000000E+00  0.00000000E+00
  0.00000000E+00  0.00000000E+00  0.00000000E+00
  0.00000000E+00  0.00000000E+00  0.00000000E+00
  0.00000000E+00  0.00000000E+00  0.00000000E+00
  0.00000000E+00  0.00000000E+00  0.00000000E+00
  0.00000000E+00  0.00000000E+00  0.00000000E+00
  0.00000000E+00  0.00000000E+00  0.00000000E+00
  0.00000000E+00  0.00000000E+00  0.00000000E+00
  0.00000000E+00  0.00000000E+00  0.00000000E+00
  0.00000000E+00  0.00000000E+00  0.00000000E+00
  0.00000000E+00  0.00000000E+00  0.00000000E+00
  0.00000000E+00  0.00000000E+00  0.00000000E+00
  0.00000000E+00  0.00000000E+00  0.00000000E+00
  0.00000000E+00  0.00000000E+00  0.00000000E+00
  0.00000000E+00  0.00000000E+00  0.00000000E+00
  0.00000000E+00  0.00000000E+00  0.00000000E+00
  0.00000000E+00  0.00000000E+00  0.00000000E+00
  0.00000000E+00  0.00000000E+00  0.00000000E+00
  0.00000000E+00  0.00000000E+00  0.00000000E+00
  0.00000000E+00  0.00000000E+00  0.00000000E+00
  0.00000000E+00  0.00000000E+00  0.00000000E+00
  0.00000000E+00  0.00000000E+00  0.00000000E+00
  0.00000000E+00  0.00000000E+00  0.00000000E+00
  0.00000000E+00  0.00000000E+00  0.00000000E+00
  0.00000000E+00  0.00000000E+00  0.00000000E+00
  0.00000000E+00  0.00000000E+00  0.00000000E+00
  0.00000000E+00  0.00000000E+00  0.00000000E+00
  0.00000000E+00  0.00000000E+00  0.00000000E+00
  0.00000000E+00  0.00000000E+00  0.00000000E+00
  0.00000000E+00  0.00000000E+00  0.00000000E+00
  0.00000000E+00  0.00000000E+00  0.00000000E+00
  0.00000000E+00  0.00000000E+00  0.00000000E+00
  0.00000000E+00  0.00000000E+00  0.00000000E+00
  0.00000000E+00  0.00000000E+00  0.00000000E+00
  0.00000000E+00  0.00000000E+00  0.00000000E+00
  0.00000000E+00  0.00000000E+00  0.00000000E+00
  0.00000000E+00  0.00000000E+00  0.00000000E+00
  0.00000000E+00  0.00000000E+00  0.00000000E+00
  0.00000000E+00  0.00000000E+00  0.00000000E+00
  0.00000000E+00  0.00000000E+00  0.00000000E+00
  0.00000000E+00  0.00000000E+00  0.00000000E+00
  0.00000000E+00  0.00000000E+00  0.00000000E+00
  0.00000000E+00  0.00000000E+00  0.00000000E+00
  0.00000000E+00  0.00000000E+00  0.00000000E+00
  0.00000000E+00  0.00000000E+00  0.00000000E+00
  0.00000000E+00  0.00000000E+00  0.00000000E+00
  0.00000000E+00  0.00000000E+00  0.00000000E+00
  0.00000000E+00  0.00000000E+00  0.00000000E+00
  0.00000000E+00  0.00000000E+00  0.00000000E+00
  0.00000000E+00  0.00000000E+00  0.00000000E+00
  0.00000000E+00  0.00000000E+00  0.00000000E+00
  0.00000000E+00  0.00000000E+00  0.00000000E+00
  0.00000000E+00  0.00000000E+00  0.00000000E+00
  0.00000000E+00  0.00000000E+00  0.00000000E+00
  0.00000000E+00  0.00000000E+00  0.00000000E+00
  0.00000000E+00  0.00000000E+00  0.00000000E+00
  0.00000000E+00  0.00000000E+00  0.00000000E+00
  0.00000000E+00  0.00000000E+00  0.00000000E+00
  0.00000000E+00  0.00000000E+00  0.00000000E+00
  0.00000000E+00  0.00000000E+00  0.00000000E+00
  0.00000000E+00  0.00000000E+00  0.00000000E+00
  0.00000000E+00  0.00000000E+00  0.00000000E+00
  0.00000000E+00  0.00000000E+00  0.00000000E+00
  0.00000000E+00  0.00000000E+00  0.00000000E+00
  0.00000000E+00  0.00000000E+00  0.00000000E+00
  0.00000000E+00  0.00000000E+00  0.00000000E+00
  0.00000000E+00  0.00000000E+00  0.00000000E+00
  0.00000000E+00  0.00000000E+00  0.00000000E+00
  0.00000000E+00  0.00000000E+00  0.00000000E+00
  0.00000000E+00  0.00000000E+00  0.00000000E+00
  0.00000000E+00  0.00000000E+00  0.00000000E+00
  0.00000000E+00  0.00000000E+00  0.00000000E+00
  0.00000000E+00  0.00000000E+00  0.00000000E+00
  0.00000000E+00  0.00000000E+00  0.00000000E+00
  0.00000000E+00  0.00000000E+00  0.00000000E+00
  0.00000000E+00  0.00000000E+00  0.00000000E+00
  0.00000000E+00  0.00000000E+00  0.00000000E+00
  0.00000000E+00  0.00000000E+00  0.00000000E+00
  0.00000000E+00  0.00000000E+00  0.00000000E+00
  0.00000000E+00  0.00000000E+00  0.00000000E+00
  0.00000000E+00  0.00000000E+00  0.00000000E+00
  0.00000000E+00  0.00000000E+00  0.00000000E+00
  0.00000000E+00  0.00000000E+00  0.00000000E+00
  0.00000000E+00  0.00000000E+00  0.00000000E+00
  0.00000000E+00  0.00000000E+00  0.00000000E+00
  0.00000000E+00  0.00000000E+00  0.00000000E+00
  0.00000000E+00  0.00000000E+00  0.00000000E+00
  0.00000000E+00  0.00000000E+00  0.00000000E+00
  0.00000000E+00  0.00000000E+00  0.00000000E+00
  0.00000000E+00  0.00000000E+00  0.00000000E+00
  0.00000000E+00  0.00000000E+00  0.00000000E+00
  0.00000000E+00  0.00000000E+00  0.00000000E+00
  0.00000000E+00  0.00000000E+00  0.00000000E+00
  0.00000000E+00  0.00000000E+00  0.00000000E+00
  0.00000000E+00  0.00000000E+00  0.00000000E+00
  0.00000000E+00  0.00000000E+00  0.00000000E+00
  0.00000000E+00  0.00000000E+00  0.00000000E+00
  0.00000000E+00  0.00000000E+00  0.00000000E+00
  0.00000000E+00  0.00000000E+00  0.00000000E+00
  0.00000000E+00  0.00000000E+00  0.00000000E+00
  0.00000000E+00  0.00000000E+00  0.00000000E+00
  0.00000000E+00  0.00000000E+00  0.00000000E+00
  0.00000000E+00  0.00000000E+00  0.00000000E+00
  0.00000000E+00  0.00000000E+00  0.00000000E+00
  0.00000000E+00  0.00000000E+00  0.00000000E+00
  0.00000000E+00  0.00000000E+00  0.00000000E+00
  0.00000000E+00  0.00000000E+00  0.00000000E+00
  0.00000000E+00  0.00000000E+00  0.00000000E+00
  0.00000000E+00  0.00000000E+00  0.00000000E+00
  0.00000000E+00  0.00000000E+00  0.00000000E+00
  0.00000000E+00  0.00000000E+00  0.00000000E+00
  0.00000000E+00  0.00000000E+00  0.00000000E+00
  0.00000000E+00  0.00000000E+00  0.00000000E+00
  0.00000000E+00  0.00000000E+00  0.00000000E+00
  0.00000000E+00  0.00000000E+00  0.00000000E+00
  0.00000000E+00  0.00000000E+00  0.00000000E+00
  0.00000000E+00  0.00000000E+00  0.00000000E+00
  0.00000000E+00  0.00000000E+00  0.00000000E+00
  0.00000000E+00  0.00000000E+00  0.00000000E+00
  0.00000000E+00  0.00000000E+00  0.00000000E+00
  0.00000000E+00  0.00000000E+00  0.00000000E+00
  0.00000000E+00  0.00000000E+00  0.00000000E+00
  0.00000000E+00  0.00000000E+00  0.00000000E+00
  0.00000000E+00  0.00000000E+00  0.00000000E+00
  0.00000000E+00  0.00000000E+00  0.00000000E+00
  0.00000000E+00  0.00000000E+00  0.00000000E+00
  0.00000000E+00  0.00000000E+00  0.00000000E+00
  0.00000000E+00  0.00000000E+00  0.00000000E+00
  0.00000000E+00  0.00000000E+00  0.00000000E+00
  0.00000000E+00  0.00000000E+00  0.00000000E+00
  0.00000000E+00  0.00000000E+00  0.00000000E+00
  0.00000000E+00  0.00000000E+00  0.00000000E+00
  0.00000000E+00  0.00000000E+00  0.00000000E+00
  0.00000000E+00  0.00000000E+00  0.00000000E+00
  0.00000000E+00  0.00000000E+00  0.00000000E+00
  0.00000000E+00  0.00000000E+00  0.00000000E+00
  0.00000000E+00  0.00000000E+00  0.00000000E+00
  0.00000000E+00  0.00000000E+00  0.00000000E+00
  0.00000000E+00  0.00000000E+00  0.00000000E+00
  0.00000000E+00  0.00000000E+00  0.00000000E+00
  0.00000000E+00  0.00000000E+00  0.00000000E+00
  0.00000000E+00  0.00000000E+00  0.00000000E+00
  0.00000000E+00  0.00000000E+00  0.00000000E+00
  0.00000000E+00  0.00000000E+00  0.00000000E+00
  0.00000000E+00  0.00000000E+00  0.00000000E+00
  0.00000000E+00  0.00000000E+00  0.00000000E+00
  0.00000000E+00  0.00000000E+00  0.00000000E+00
  0.00000000E+00  0.00000000E+00  0.00000000E+00
  0.00000000E+00  0.00000000E+00  0.00000000E+00
  0.00000000E+00  0.00000000E+00  0.00000000E+00
  0.00000000E+00  0.00000000E+00  0.00000000E+00
  0.00000000E+00  0.00000000E+00  0.00000000E+00
  0.00000000E+00  0.00000000E+00  0.00000000E+00
  0.00000000E+00  0.00000000E+00  0.00000000E+00
  0.00000000E+00  0.00000000E+00  0.00000000E+00
  0.00000000E+00  0.00000000E+00  0.00000000E+00
  0.00000000E+00  0.00000000E+00  0.00000000E+00
  0.00000000E+00  0.00000000E+00  0.00000000E+00
  0.00000000E+00  0.00000000E+00  0.00000000E+00
  0.00000000E+00  0.00000000E+00  0.00000000E+00
  0.00000000E+00  0.00000000E+00  0.00000000E+00
  0.00000000E+00  0.00000000E+00  0.00000000E+00
  0.00000000E+00  0.00000000E+00  0.00000000E+00
  0.00000000E+00  0.00000000E+00  0.00000000E+00
  0.00000000E+00  0.00000000E+00  0.00000000E+00
  0.00000000E+00  0.00000000E+00  0.00000000E+00
  0.00000000E+00  0.00000000E+00  0.00000000E+00
  0.00000000E+00  0.00000000E+00  0.00000000E+00
  0.00000000E+00  0.00000000E+00  0.00000000E+00
  0.00000000E+00  0.00000000E+00  0.00000000E+00
  0.00000000E+00  0.00000000E+00  0.00000000E+00
  0.00000000E+00  0.00000000E+00  0.00000000E+00
  0.00000000E+00  0.00000000E+00  0.00000000E+00
  0.00000000E+00  0.00000000E+00  0.00000000E+00
  0.00000000E+00  0.00000000E+00  0.00000000E+00
  0.00000000E+00  0.00000000E+00  0.00000000E+00
  0.00000000E+00  0.00000000E+00  0.00000000E+00
  0.00000000E+00  0.00000000E+00  0.00000000E+00
  0.00000000E+00  0.00000000E+00  0.00000000E+00
  0.00000000E+00  0.00000000E+00  0.00000000E+00
  0.00000000E+00  0.00000000E+00  0.00000000E+00
  0.00000000E+00  0.00000000E+00  0.00000000E+00
  0.00000000E+00  0.00000000E+00  0.00000000E+00
  0.00000000E+00  0.00000000E+00  0.00000000E+00
  0.00000000E+00  0.00000000E+00  0.00000000E+00
  0.00000000E+00  0.00000000E+00  0.00000000E+00
  0.00000000E+00  0.00000000E+00  0.00000000E+00
  0.00000000E+00  0.00000000E+00  0.00000000E+00
  0.00000000E+00  0.00000000E+00  0.00000000E+00
  0.00000000E+00  0.00000000E+00  0.00000000E+00
  0.00000000E+00  0.00000000E+00  0.00000000E+00
  0.00000000E+00  0.00000000E+00  0.00000000E+00
  0.00000000E+00  0.00000000E+00  0.00000000E+00
  0.00000000E+00  0.00000000E+00  0.00000000E+00
  0.00000000E+00  0.00000000E+00  0.00000000E+00
  0.00000000E+00  0.00000000E+00  0.00000000E+00
  0.00000000E+00  0.00000000E+00  0.00000000E+00
  0.00000000E+00  0.00000000E+00  0.00000000E+00
  0.00000000E+00  0.00000000E+00  0.00000000E+00
  0.00000000E+00  0.00000000E+00  0.00000000E+00
