# accuracy
PREC   =  Normal
LREAL  =  Auto
EDIFF  =  1e-05
ENCUT  =  520.0
LASPH  =  True
NELM   =  100

# ionic relaxation
ISIF    =  2
IBRION  =  2
EDIFFG  =  -0.01
NSW     =  0
ISYM = -1

# occupation
ISTART = 1
ISMEAR  =  -2
SIGMA   =  0.1
NELECT =  862
NBANDS =  648
FERWE = 429*1 1*1 1*1 1*1 216*0
FERDO = 429*1 1*0 1*1 1*0 216*0
LDIAG = .FALSE.
ALGO = Damped

# spin
ISPIN  =  2

# IO control
LWAVE   =  True
LCHARG  =  True

# analyzer
LORBIT  =  11

