x3                                      
    1.000000000000000     
    10.6822376251000009    0.0000000000000000    0.0000000000000000
    -0.0000014224000000   10.6822347641000004    0.0000000000000000
    -0.0000014224000000   -0.0000085346000000   10.6822347641000004
   N    C 
     1   214
Direct
  0.5494714609897471  0.3828053126523795  0.5494713999578404
  0.9582112529772387  0.7915454729513745  0.1250855704076089
  0.3754435713010346  0.5415753477045000  0.8748577415520055
  0.2916673494780256  0.1250017322712510  0.7912629119190357
  0.2928476366594803  0.6239282051658336  0.6246983603747004
  0.3754435464007148  0.7081910863357858  0.7082405354014094
  0.4624147211320666  0.4582310865331469  0.6248984765695643
  0.5422939561815866  0.5430565757358319  0.7097224699546422
  0.4588584312600468  0.6256277487232430  0.7922935849869849
  0.5418954931822728  0.7087547465163289  0.8754202789007095
  0.6248653782570837  0.7913890240280678  0.1253454578702588
  0.7080761170890901  0.8748592920096958  0.2084826280239808
  0.6248646582922502  0.9586795319747111  0.9580545233373780
  0.7080767863756914  0.0418160836662624  0.0415243493521006
  0.7916469130623991  0.7918688310057145  0.9585345728528128
  0.8748831493264188  0.8750735973945413  0.0417391545769915
  0.7913519925846751  0.9583525466762796  0.1250183103092657
  0.8746951455139415  0.0416289004551437  0.2082953048471383
  0.6248831314241310  0.7918185197028259  0.4584499230485434
  0.7081948030944059  0.8753911144520162  0.5416702534139612
  0.6246447724104252  0.9582596871730079  0.2915756724775843
  0.7084195367165178  0.0413183860193285  0.3752002086042754
  0.7914265332828295  0.7915125233333750  0.2918415102081530
  0.8749192729439205  0.8748433504536088  0.3750915646337340
  0.7915991561916793  0.9583240178751390  0.4581813122149248
  0.8744069583692857  0.0422346002095213  0.5414562915882160
  0.2928473601553835  0.4580325178379539  0.7905952262370146
  0.6251603494041496  0.7922134727200428  0.7918219041961171
  0.5418677947720659  0.7084651097111816  0.5418677928812909
  0.5409378913868430  0.5399957386376246  0.3766479427891998
  0.3750496371335527  0.2083824980591724  0.8745663951953097
  0.2930702536209230  0.2906972439954489  0.6230662249172672
  0.3766474411556544  0.3742714877678477  0.7066614054131608
  0.4573662691901323  0.1264047602274006  0.6230636905143863
  0.5409370973029781  0.2099810871858840  0.7066623649468586
  0.4585261130735499  0.2918608453509961  0.7911118222248444
  0.5418683315556523  0.3752022455021538  0.8751317633836829
  0.2915764672314153  0.4579777180530201  0.1249254321812176
  0.3752025438040864  0.5417519416425759  0.2079866500171590
  0.2918416680261332  0.6247607524564169  0.9581786276595040
  0.3750916437499827  0.7082534280398605  0.0415095848190662
  0.4584501519441928  0.4582169994522327  0.9584847009199864
  0.5416704645869818  0.5415293804139019  0.0420571306595264
  0.4581810408313973  0.6249325468936155  0.1249897275529442
  0.5414559274549523  0.7077411890692390  0.2089007019854567
  0.2930696540207666  0.4563955095799341  0.4573639352729190
  0.3766479625399838  0.5399957298013880  0.5409378688915555
  0.2916676723091117  0.6245947950837926  0.2916676733472394
  0.3750491712469973  0.7078994427083605  0.3750491614566681
  0.4573639483541169  0.4563955062536713  0.2930696422158735
  0.4585264351701395  0.6244433978902143  0.4585264323391204
  0.5449496335799640  0.2025198601241283  0.3691851699688355
  0.7083056751819916  0.8754803453089881  0.8749798887953441
  0.7078620218322356  0.0424651699151790  0.7078620138996298
  0.8754202681281609  0.3752294427903116  0.8754202712902560
  0.6244889102539048  0.4578206488769980  0.1258072700155541
  0.7078627160325522  0.5411970669964584  0.2091315475397181
  0.6251605610297134  0.6251556174796765  0.9588791303021640
  0.7083056483716500  0.7083141275481906  0.0421457420910901
  0.7918215671389137  0.4584943094449072  0.9588792472285332
  0.8749801302118191  0.5416401264805586  0.0421458554185191
  0.7914414009292462  0.6247756929619359  0.1255849518138137
  0.8748177979766022  0.7081517958527004  0.2086202881212265
  0.6248985156255660  0.4582311075773953  0.4624147113621134
  0.7097224701027257  0.5430565926264309  0.5422939613551087
  0.6246983614811960  0.6239282103625394  0.2928476281566697
  0.7082405333969594  0.7081910875747410  0.3754435395888131
  0.7905952327992668  0.4580325232973882  0.2928473545049454
  0.8748577431264325  0.5415753525297777  0.3754435655843196
  0.7922935775395916  0.6256277532320190  0.4588584412808004
  0.8754202741098402  0.7087547435881574  0.5418955002456146
  0.6256754353330081  0.4590094047778743  0.7926115487914116
  0.7087797592637761  0.5421140479643243  0.8757317607866979
  0.6256754864621402  0.6259455089929468  0.6256755001743669
  0.7087798324081436  0.7090661784804714  0.7087798391834980
  0.7926115444080302  0.4590094046583932  0.6256754487610117
  0.8757317530048528  0.5421140485377175  0.7087797728077231
  0.7922935891401021  0.2921926879580741  0.7922935988723916
  0.6244883008752836  0.9591413910486272  0.6244883053490288
  0.8748570654671947  0.2087771264222494  0.7082409949246614
  0.7097223587664084  0.3756282596062478  0.7097223673371983
  0.7918218865175342  0.7922134696387995  0.6251603565639121
  0.8749798874986447  0.8754803384943798  0.7083056773972980
  0.7914415100748861  0.9589194129951907  0.7914415139480619
  0.8748174164107658  0.0419547110021384  0.8748174201208555
  0.6246452008818557  0.1249100956195367  0.1249250125642188
  0.7084186731001558  0.2085349983121080  0.2079853870624623
  0.6248826838297878  0.2917845699848366  0.9584848053123577
  0.7081958311137998  0.3750051131657099  0.0420564926768971
  0.7914262282702406  0.1251763047329496  0.9581782537332181
  0.8749200435641783  0.2084256722486063  0.0415085775999703
  0.7915996604995813  0.2915155947306895  0.1249896065374419
  0.8744083299536427  0.3747906276944409  0.2089003236202395
  0.6230636890111599  0.1264047760771508  0.4573662718562542
  0.7066623887279897  0.2099810905949864  0.5409370928584805
  0.6230662185425763  0.2906972581646787  0.2930702621492413
  0.7066614309049750  0.3742715045870509  0.3766474239989777
  0.7912629040192437  0.1250017377855916  0.2916673493447675
  0.8745664020456939  0.2083824970040259  0.3750496277491788
  0.7911118323036237  0.2918608455188674  0.4585261111163462
  0.8751317644516848  0.3752022507683085  0.5418683376015038
  0.6246984184402231  0.1261820974217114  0.7905950799829560
  0.7082409877823788  0.2087771239325706  0.8748570618569409
  0.6248974986964065  0.2957495834752057  0.6248974830635246
  0.7905950841033795  0.1261820940593968  0.6246984216270843
  0.4586750680179323  0.1251533660805574  0.2918181531290833
  0.3691882994386817  0.3782826114067547  0.3691882780530578
  0.2918168188358847  0.2920075824455948  0.2918168135616877
  0.1248998081751446  0.1248944188631374  0.9580755858544926
  0.2081826908010853  0.2081663000825151  0.0413437642506393
  0.1243542756547075  0.2915362918912587  0.1243542720904101
  0.2073280213767970  0.3743174670584707  0.2073280172219937
  0.9580252057003699  0.1251467051750351  0.4581929020504815
  0.0416773918326790  0.2083527902765018  0.5414174381138406
  0.9580250313488993  0.2915275902487233  0.2918126816465326
  0.0416779752499554  0.3747513688148463  0.3750196973400293
  0.1249744100407987  0.1249955623036968  0.2916613490799192
  0.2085558262556766  0.2081591133213395  0.3748263821667231
  0.1254213965954536  0.2913831211952674  0.4580498964157262
  0.2092389394865884  0.3743887146299396  0.5410529039194458
  0.9581782461603949  0.1251763066700292  0.7914262353294924
  0.0415085766394150  0.2084256735409697  0.8749200475112016
  0.9584848015903887  0.2917845746641563  0.6248826890329584
  0.0420564977544493  0.3750051136588490  0.7081958306978118
  0.1249250003558125  0.1249100816612006  0.6246452038367029
  0.2079853799057260  0.2085349930678135  0.7084186746406550
  0.1249895984137678  0.2915155939689856  0.7915996659138974
  0.2089003357556081  0.3747906274762120  0.8744083208328375
  0.9580548193250733  0.4581993701612289  0.1253452361111263
  0.0415249194347262  0.5414110719879386  0.2084822944194913
  0.9585347683095641  0.6249812886519746  0.9585347728064733
  0.0413923513502428  0.3748109990484016  0.0413923442538363
  0.0417392420376721  0.7082172535864817  0.0417392374807890
  0.9583056195038766  0.2917056510124968  0.9583056261005997
  0.9580755849718966  0.1248944193771593  0.1248998050972570
  0.0415323633871059  0.8748664056842493  0.2082910170590813
  0.9582110908279132  0.9584199756983309  0.9582110876900337
  0.0415322429410383  0.0416252468445663  0.0415322340496396
  0.1250855735357141  0.7915454701612759  0.9582112535143444
  0.2082910212519876  0.8748664084370545  0.0415323611275000
  0.1248811064319346  0.9582151811172920  0.1248811074267435
  0.2082143833504518  0.0415486780704013  0.2082143814652536
  0.9583055713441366  0.7916401773936493  0.4583707622707762
  0.0413921826117897  0.8747263356128937  0.5414768179099726
  0.9580761175553191  0.9582336533769589  0.2915598664412559
  0.0413437110176323  0.0415170166494945  0.3748319681094362
  0.1248998828067055  0.7914101005291304  0.2915598666188378
  0.2081832440150000  0.8746778165621507  0.3748323135692256
  0.1243540103688803  0.9576882881496959  0.4582014911373520
  0.2073285119269602  0.0406622772532669  0.5409833097844465
  0.9585345674935565  0.7918688286686127  0.7916469213267812
  0.0417391583497858  0.8750735951069624  0.8748831470631024
  0.9580545146633540  0.9586795200089565  0.6248646661874275
  0.0415243482130710  0.0418160760541489  0.7080767894668299
  0.1253454528870725  0.7913890146963443  0.6248653818418931
  0.2084826300968928  0.8748592842285535  0.7080761209561504
  0.1250183093545086  0.9583525418075037  0.7913519998437235
  0.2082953148075811  0.0416289000302388  0.8746951444361354
  0.0413437681946186  0.2081663017482406  0.2081826821052764
  0.1253452345376989  0.4581993661652643  0.9580548209496929
  0.2084822986585717  0.5414110706413208  0.0415249162574913
  0.1250181258039631  0.6246862227495306  0.1250181242774698
  0.3748263218005191  0.0418899460464234  0.3748263285413780
  0.4581930183204747  0.7913588408237542  0.2918119595222811
  0.5414166221816461  0.8750121100766277  0.3750198531863516
  0.4580488825350478  0.9587556203517527  0.4580488892529122
  0.5410530460539879  0.0425745520286118  0.5410530380605514
  0.2918415078822143  0.7915125180106652  0.7914265399091696
  0.3750915725639423  0.8748433451760439  0.8749192695303344
  0.2915756671108021  0.9582596725201292  0.6246447749609753
  0.3752002127222174  0.0413183728031272  0.7084195321313859
  0.4584499237018633  0.7918185188686812  0.6248831363493271
  0.5416702560590337  0.8753911169107870  0.7081948038337268
  0.4581813112567934  0.9583240120662886  0.7915991591367966
  0.5414562895720975  0.0422346011155206  0.8744069538954459
  0.2916613499822987  0.1249955661362922  0.1249744132354277
  0.3748263779462926  0.2081591191905192  0.2085558256061821
  0.2918126877837143  0.2915275899919559  0.9580250261296823
  0.3750197016653543  0.3747513679682565  0.0416779731740810
  0.4581928999253679  0.1251467090847606  0.9580252048498604
  0.5414174377367942  0.2083527925632764  0.0416773903402128
  0.4580498915273629  0.2913831257396206  0.1254213978842098
  0.5410529162667939  0.3743887225789898  0.2092389249515840
  0.2918181191842877  0.1251533320035984  0.4586750907229235
  0.3691851156640983  0.2025197821361142  0.5449496497661150
  0.2916608599998544  0.9583089637051987  0.2916608639048936
  0.3750198581213915  0.8750121061720668  0.5414166204453088
  0.2918119602881371  0.7913588386312269  0.4581930215437550
  0.5409833106732581  0.0406623090534178  0.2073285351629666
  0.2082958113622658  0.7080279200244417  0.2082958038452341
  0.9584847003369422  0.4582170013967745  0.4584501576546609
  0.0420571323078090  0.5415293814838809  0.5416704675938498
  0.9581786257518856  0.6247607552647836  0.2918416742932725
  0.0415095878642686  0.7082534307564401  0.3750916398173895
  0.1249254318907616  0.4579777195792528  0.2915764686104409
  0.2079866536440955  0.5417519418428641  0.3752025353375308
  0.1249897241920487  0.6249325470939217  0.4581810460276549
  0.2089007145353068  0.7077411885546764  0.5414559264888545
  0.9588792429714749  0.4584943132300368  0.7918215814812055
  0.0421458592242221  0.5416401262966142  0.8749801296964180
  0.7921003218044168  0.6254346943667762  0.7921003356132149
  0.9588791224835587  0.6251556126475014  0.6251605751726489
  0.1258072736013103  0.4578206487275386  0.6244889152558543
  0.2091315578178591  0.5411970664436996  0.7078627145373918
  0.1255849524309853  0.6247756904034967  0.7914414039604133
  0.2086202871111053  0.7081517915201840  0.8748177987078044
  0.2915598670222941  0.7914101034926773  0.1248998823896286
  0.3748323189293380  0.8746778241754054  0.2081832410086453
  0.2915598712588233  0.9582336559614139  0.9580761217086995
  0.3748319759114702  0.0415170233720234  0.0413437097053871
  0.4583707582132207  0.7916401803311873  0.9583055783472443
  0.5414768247898027  0.8747263474154373  0.0413921865811426
  0.4582014911927368  0.9576883050400289  0.1243540244330937
  0.0421457437357147  0.7083141244418415  0.7083056503454461
  0.8752623030984066  0.7085963602326439  0.8752623062195592
 
  0.00000000E+00  0.00000000E+00  0.00000000E+00
  0.00000000E+00  0.00000000E+00  0.00000000E+00
  0.00000000E+00  0.00000000E+00  0.00000000E+00
  0.00000000E+00  0.00000000E+00  0.00000000E+00
  0.00000000E+00  0.00000000E+00  0.00000000E+00
  0.00000000E+00  0.00000000E+00  0.00000000E+00
  0.00000000E+00  0.00000000E+00  0.00000000E+00
  0.00000000E+00  0.00000000E+00  0.00000000E+00
  0.00000000E+00  0.00000000E+00  0.00000000E+00
  0.00000000E+00  0.00000000E+00  0.00000000E+00
  0.00000000E+00  0.00000000E+00  0.00000000E+00
  0.00000000E+00  0.00000000E+00  0.00000000E+00
  0.00000000E+00  0.00000000E+00  0.00000000E+00
  0.00000000E+00  0.00000000E+00  0.00000000E+00
  0.00000000E+00  0.00000000E+00  0.00000000E+00
  0.00000000E+00  0.00000000E+00  0.00000000E+00
  0.00000000E+00  0.00000000E+00  0.00000000E+00
  0.00000000E+00  0.00000000E+00  0.00000000E+00
  0.00000000E+00  0.00000000E+00  0.00000000E+00
  0.00000000E+00  0.00000000E+00  0.00000000E+00
  0.00000000E+00  0.00000000E+00  0.00000000E+00
  0.00000000E+00  0.00000000E+00  0.00000000E+00
  0.00000000E+00  0.00000000E+00  0.00000000E+00
  0.00000000E+00  0.00000000E+00  0.00000000E+00
  0.00000000E+00  0.00000000E+00  0.00000000E+00
  0.00000000E+00  0.00000000E+00  0.00000000E+00
  0.00000000E+00  0.00000000E+00  0.00000000E+00
  0.00000000E+00  0.00000000E+00  0.00000000E+00
  0.00000000E+00  0.00000000E+00  0.00000000E+00
  0.00000000E+00  0.00000000E+00  0.00000000E+00
  0.00000000E+00  0.00000000E+00  0.00000000E+00
  0.00000000E+00  0.00000000E+00  0.00000000E+00
  0.00000000E+00  0.00000000E+00  0.00000000E+00
  0.00000000E+00  0.00000000E+00  0.00000000E+00
  0.00000000E+00  0.00000000E+00  0.00000000E+00
  0.00000000E+00  0.00000000E+00  0.00000000E+00
  0.00000000E+00  0.00000000E+00  0.00000000E+00
  0.00000000E+00  0.00000000E+00  0.00000000E+00
  0.00000000E+00  0.00000000E+00  0.00000000E+00
  0.00000000E+00  0.00000000E+00  0.00000000E+00
  0.00000000E+00  0.00000000E+00  0.00000000E+00
  0.00000000E+00  0.00000000E+00  0.00000000E+00
  0.00000000E+00  0.00000000E+00  0.00000000E+00
  0.00000000E+00  0.00000000E+00  0.00000000E+00
  0.00000000E+00  0.00000000E+00  0.00000000E+00
  0.00000000E+00  0.00000000E+00  0.00000000E+00
  0.00000000E+00  0.00000000E+00  0.00000000E+00
  0.00000000E+00  0.00000000E+00  0.00000000E+00
  0.00000000E+00  0.00000000E+00  0.00000000E+00
  0.00000000E+00  0.00000000E+00  0.00000000E+00
  0.00000000E+00  0.00000000E+00  0.00000000E+00
  0.00000000E+00  0.00000000E+00  0.00000000E+00
  0.00000000E+00  0.00000000E+00  0.00000000E+00
  0.00000000E+00  0.00000000E+00  0.00000000E+00
  0.00000000E+00  0.00000000E+00  0.00000000E+00
  0.00000000E+00  0.00000000E+00  0.00000000E+00
  0.00000000E+00  0.00000000E+00  0.00000000E+00
  0.00000000E+00  0.00000000E+00  0.00000000E+00
  0.00000000E+00  0.00000000E+00  0.00000000E+00
  0.00000000E+00  0.00000000E+00  0.00000000E+00
  0.00000000E+00  0.00000000E+00  0.00000000E+00
  0.00000000E+00  0.00000000E+00  0.00000000E+00
  0.00000000E+00  0.00000000E+00  0.00000000E+00
  0.00000000E+00  0.00000000E+00  0.00000000E+00
  0.00000000E+00  0.00000000E+00  0.00000000E+00
  0.00000000E+00  0.00000000E+00  0.00000000E+00
  0.00000000E+00  0.00000000E+00  0.00000000E+00
  0.00000000E+00  0.00000000E+00  0.00000000E+00
  0.00000000E+00  0.00000000E+00  0.00000000E+00
  0.00000000E+00  0.00000000E+00  0.00000000E+00
  0.00000000E+00  0.00000000E+00  0.00000000E+00
  0.00000000E+00  0.00000000E+00  0.00000000E+00
  0.00000000E+00  0.00000000E+00  0.00000000E+00
  0.00000000E+00  0.00000000E+00  0.00000000E+00
  0.00000000E+00  0.00000000E+00  0.00000000E+00
  0.00000000E+00  0.00000000E+00  0.00000000E+00
  0.00000000E+00  0.00000000E+00  0.00000000E+00
  0.00000000E+00  0.00000000E+00  0.00000000E+00
  0.00000000E+00  0.00000000E+00  0.00000000E+00
  0.00000000E+00  0.00000000E+00  0.00000000E+00
  0.00000000E+00  0.00000000E+00  0.00000000E+00
  0.00000000E+00  0.00000000E+00  0.00000000E+00
  0.00000000E+00  0.00000000E+00  0.00000000E+00
  0.00000000E+00  0.00000000E+00  0.00000000E+00
  0.00000000E+00  0.00000000E+00  0.00000000E+00
  0.00000000E+00  0.00000000E+00  0.00000000E+00
  0.00000000E+00  0.00000000E+00  0.00000000E+00
  0.00000000E+00  0.00000000E+00  0.00000000E+00
  0.00000000E+00  0.00000000E+00  0.00000000E+00
  0.00000000E+00  0.00000000E+00  0.00000000E+00
  0.00000000E+00  0.00000000E+00  0.00000000E+00
  0.00000000E+00  0.00000000E+00  0.00000000E+00
  0.00000000E+00  0.00000000E+00  0.00000000E+00
  0.00000000E+00  0.00000000E+00  0.00000000E+00
  0.00000000E+00  0.00000000E+00  0.00000000E+00
  0.00000000E+00  0.00000000E+00  0.00000000E+00
  0.00000000E+00  0.00000000E+00  0.00000000E+00
  0.00000000E+00  0.00000000E+00  0.00000000E+00
  0.00000000E+00  0.00000000E+00  0.00000000E+00
  0.00000000E+00  0.00000000E+00  0.00000000E+00
  0.00000000E+00  0.00000000E+00  0.00000000E+00
  0.00000000E+00  0.00000000E+00  0.00000000E+00
  0.00000000E+00  0.00000000E+00  0.00000000E+00
  0.00000000E+00  0.00000000E+00  0.00000000E+00
  0.00000000E+00  0.00000000E+00  0.00000000E+00
  0.00000000E+00  0.00000000E+00  0.00000000E+00
  0.00000000E+00  0.00000000E+00  0.00000000E+00
  0.00000000E+00  0.00000000E+00  0.00000000E+00
  0.00000000E+00  0.00000000E+00  0.00000000E+00
  0.00000000E+00  0.00000000E+00  0.00000000E+00
  0.00000000E+00  0.00000000E+00  0.00000000E+00
  0.00000000E+00  0.00000000E+00  0.00000000E+00
  0.00000000E+00  0.00000000E+00  0.00000000E+00
  0.00000000E+00  0.00000000E+00  0.00000000E+00
  0.00000000E+00  0.00000000E+00  0.00000000E+00
  0.00000000E+00  0.00000000E+00  0.00000000E+00
  0.00000000E+00  0.00000000E+00  0.00000000E+00
  0.00000000E+00  0.00000000E+00  0.00000000E+00
  0.00000000E+00  0.00000000E+00  0.00000000E+00
  0.00000000E+00  0.00000000E+00  0.00000000E+00
  0.00000000E+00  0.00000000E+00  0.00000000E+00
  0.00000000E+00  0.00000000E+00  0.00000000E+00
  0.00000000E+00  0.00000000E+00  0.00000000E+00
  0.00000000E+00  0.00000000E+00  0.00000000E+00
  0.00000000E+00  0.00000000E+00  0.00000000E+00
  0.00000000E+00  0.00000000E+00  0.00000000E+00
  0.00000000E+00  0.00000000E+00  0.00000000E+00
  0.00000000E+00  0.00000000E+00  0.00000000E+00
  0.00000000E+00  0.00000000E+00  0.00000000E+00
  0.00000000E+00  0.00000000E+00  0.00000000E+00
  0.00000000E+00  0.00000000E+00  0.00000000E+00
  0.00000000E+00  0.00000000E+00  0.00000000E+00
  0.00000000E+00  0.00000000E+00  0.00000000E+00
  0.00000000E+00  0.00000000E+00  0.00000000E+00
  0.00000000E+00  0.00000000E+00  0.00000000E+00
  0.00000000E+00  0.00000000E+00  0.00000000E+00
  0.00000000E+00  0.00000000E+00  0.00000000E+00
  0.00000000E+00  0.00000000E+00  0.00000000E+00
  0.00000000E+00  0.00000000E+00  0.00000000E+00
  0.00000000E+00  0.00000000E+00  0.00000000E+00
  0.00000000E+00  0.00000000E+00  0.00000000E+00
  0.00000000E+00  0.00000000E+00  0.00000000E+00
  0.00000000E+00  0.00000000E+00  0.00000000E+00
  0.00000000E+00  0.00000000E+00  0.00000000E+00
  0.00000000E+00  0.00000000E+00  0.00000000E+00
  0.00000000E+00  0.00000000E+00  0.00000000E+00
  0.00000000E+00  0.00000000E+00  0.00000000E+00
  0.00000000E+00  0.00000000E+00  0.00000000E+00
  0.00000000E+00  0.00000000E+00  0.00000000E+00
  0.00000000E+00  0.00000000E+00  0.00000000E+00
  0.00000000E+00  0.00000000E+00  0.00000000E+00
  0.00000000E+00  0.00000000E+00  0.00000000E+00
  0.00000000E+00  0.00000000E+00  0.00000000E+00
  0.00000000E+00  0.00000000E+00  0.00000000E+00
  0.00000000E+00  0.00000000E+00  0.00000000E+00
  0.00000000E+00  0.00000000E+00  0.00000000E+00
  0.00000000E+00  0.00000000E+00  0.00000000E+00
  0.00000000E+00  0.00000000E+00  0.00000000E+00
  0.00000000E+00  0.00000000E+00  0.00000000E+00
  0.00000000E+00  0.00000000E+00  0.00000000E+00
  0.00000000E+00  0.00000000E+00  0.00000000E+00
  0.00000000E+00  0.00000000E+00  0.00000000E+00
  0.00000000E+00  0.00000000E+00  0.00000000E+00
  0.00000000E+00  0.00000000E+00  0.00000000E+00
  0.00000000E+00  0.00000000E+00  0.00000000E+00
  0.00000000E+00  0.00000000E+00  0.00000000E+00
  0.00000000E+00  0.00000000E+00  0.00000000E+00
  0.00000000E+00  0.00000000E+00  0.00000000E+00
  0.00000000E+00  0.00000000E+00  0.00000000E+00
  0.00000000E+00  0.00000000E+00  0.00000000E+00
  0.00000000E+00  0.00000000E+00  0.00000000E+00
  0.00000000E+00  0.00000000E+00  0.00000000E+00
  0.00000000E+00  0.00000000E+00  0.00000000E+00
  0.00000000E+00  0.00000000E+00  0.00000000E+00
  0.00000000E+00  0.00000000E+00  0.00000000E+00
  0.00000000E+00  0.00000000E+00  0.00000000E+00
  0.00000000E+00  0.00000000E+00  0.00000000E+00
  0.00000000E+00  0.00000000E+00  0.00000000E+00
  0.00000000E+00  0.00000000E+00  0.00000000E+00
  0.00000000E+00  0.00000000E+00  0.00000000E+00
  0.00000000E+00  0.00000000E+00  0.00000000E+00
  0.00000000E+00  0.00000000E+00  0.00000000E+00
  0.00000000E+00  0.00000000E+00  0.00000000E+00
  0.00000000E+00  0.00000000E+00  0.00000000E+00
  0.00000000E+00  0.00000000E+00  0.00000000E+00
  0.00000000E+00  0.00000000E+00  0.00000000E+00
  0.00000000E+00  0.00000000E+00  0.00000000E+00
  0.00000000E+00  0.00000000E+00  0.00000000E+00
  0.00000000E+00  0.00000000E+00  0.00000000E+00
  0.00000000E+00  0.00000000E+00  0.00000000E+00
  0.00000000E+00  0.00000000E+00  0.00000000E+00
  0.00000000E+00  0.00000000E+00  0.00000000E+00
  0.00000000E+00  0.00000000E+00  0.00000000E+00
  0.00000000E+00  0.00000000E+00  0.00000000E+00
  0.00000000E+00  0.00000000E+00  0.00000000E+00
  0.00000000E+00  0.00000000E+00  0.00000000E+00
  0.00000000E+00  0.00000000E+00  0.00000000E+00
  0.00000000E+00  0.00000000E+00  0.00000000E+00
  0.00000000E+00  0.00000000E+00  0.00000000E+00
  0.00000000E+00  0.00000000E+00  0.00000000E+00
  0.00000000E+00  0.00000000E+00  0.00000000E+00
  0.00000000E+00  0.00000000E+00  0.00000000E+00
  0.00000000E+00  0.00000000E+00  0.00000000E+00
  0.00000000E+00  0.00000000E+00  0.00000000E+00
  0.00000000E+00  0.00000000E+00  0.00000000E+00
  0.00000000E+00  0.00000000E+00  0.00000000E+00
  0.00000000E+00  0.00000000E+00  0.00000000E+00
  0.00000000E+00  0.00000000E+00  0.00000000E+00
  0.00000000E+00  0.00000000E+00  0.00000000E+00
  0.00000000E+00  0.00000000E+00  0.00000000E+00
  0.00000000E+00  0.00000000E+00  0.00000000E+00
  0.00000000E+00  0.00000000E+00  0.00000000E+00
  0.00000000E+00  0.00000000E+00  0.00000000E+00
  0.00000000E+00  0.00000000E+00  0.00000000E+00
  0.00000000E+00  0.00000000E+00  0.00000000E+00
