x3                                      
   1.00000000000000     
    10.6822376251000009    0.0000000000000000    0.0000000000000000
    -0.0000014224000000   10.6822347641000004    0.0000000000000000
    -0.0000014224000000   -0.0000085346000000   10.6822347641000004
   N    C 
     1   214
Direct
  0.5498774969931182  0.3832039414751834  0.5498794185214154
  0.9582145402746026  0.7915495894936400  0.1250743462949022
  0.3753785385961643  0.5415144847297431  0.8749380813378567
  0.2916604796618024  0.1249950153913801  0.7910646187509850
  0.2927290236368821  0.6239553566024613  0.6246594250139194
  0.3753795888535165  0.7082713373356743  0.7081793918862364
  0.4613026619746935  0.4584300165737025  0.6250929318806603
  0.5425375579730725  0.5429902415534300  0.7096552860788023
  0.4586663612957376  0.6255974367188399  0.7922632806018775
  0.5419222155737675  0.7087604911488838  0.8754262377192481
  0.6248273647936216  0.7914287641864252  0.1253615130245751
  0.7080000180292170  0.8749546058260659  0.2085204757616380
  0.6248273208515118  0.9586966079321364  0.9580937676042923
  0.7080009809329546  0.0418545351821898  0.0416207869899147
  0.7916231758609997  0.7918758663568846  0.9585421379937594
  0.8748774841412919  0.8750976134270327  0.0417632439381099
  0.7913073554846973  0.9583675140090823  0.1250328747976418
  0.8746508903203877  0.0416569538577802  0.2083228759266959
  0.6248382184810418  0.7919110593852107  0.4583857718302715
  0.7081326384049801  0.8754789642026756  0.5416193734907399
  0.6245470116168741  0.9584276251937485  0.2915981404626676
  0.7084835167180594  0.0412569253670452  0.3753222262175265
  0.7914140538753793  0.7915621476838658  0.2917889720314202
  0.8749258213325971  0.8748600906198426  0.3750747384880055
  0.7915922033390212  0.9583036135631461  0.4580873952288202
  0.8744381275604353  0.0421816029845561  0.5413588234388400
  0.2927267660738979  0.4579908551597841  0.7906223969479267
  0.6250877992681237  0.7922781825004964  0.7918012234078536
  0.5417668554669289  0.7085570450029541  0.5417658767027719
  0.5406199644613451  0.5400838011408603  0.3763270911710399
  0.3749541218222154  0.2082874298398309  0.8745955752421233
  0.2929985782078731  0.2901165807096638  0.6228880226523704
  0.3763254750951880  0.3739567075220645  0.7067463474197111
  0.4567864478779106  0.1263266630879517  0.6228841555259994
  0.5406196273690764  0.2096591578080228  0.7067499594826598
  0.4584521127280454  0.2917840434394854  0.7911459195038152
  0.5417675551166033  0.3750998689576905  0.8752257489471795
  0.2915984685174350  0.4578795525362516  0.1250930312108309
  0.3753215532625281  0.5418155424736728  0.2079255399758284
  0.2917869761159428  0.6247495144660696  0.9582288236807052
  0.3750753050416140  0.7082601143639914  0.0415260940422244
  0.4583868995057114  0.4581733849299824  0.9585770540123303
  0.5416198069115460  0.5414653297052650  0.0421448932146036
  0.4580881458170109  0.6249250742381943  0.1249704496326002
  0.5413594432439514  0.7077714165166696  0.2088469863911881
  0.2929845310419731  0.4562209734386880  0.4567838241241526
  0.3763241000734214  0.5400855640073752  0.5406216535377304
  0.2916611623256128  0.6243965198710290  0.2916617292884893
  0.3749548927464906  0.7079284799655371  0.3749539126167060
  0.4567830955748418  0.4562213624011794  0.2929897720157073
  0.4584506711926472  0.6244774872144013  0.4584500693429698
  0.5468343251235678  0.2022464135601589  0.3689182556785295
  0.7082918870961999  0.8755067134490391  0.8750040867695253
  0.7078075246000683  0.0423844074119327  0.7078072124193403
  0.8754270320678373  0.3752576629365635  0.8754255153211131
  0.6243403519361829  0.4576726222561341  0.1259355157466277
  0.7078075405444018  0.5411416262811203  0.2090505198317660
  0.6250874671845268  0.6251348018992371  0.9589444522480577
  0.7082918636125540  0.7083386927173615  0.0421713529142817
  0.7918001946964269  0.4584215968076231  0.9589433503923777
  0.8750039408260399  0.5416259308741745  0.0421712231518620
  0.7914299646988993  0.6247649146652382  0.1255786208035504
  0.8748261329813514  0.7081606365845309  0.2086060615230065
  0.6250929940211714  0.4584167049358320  0.4613017014019122
  0.7096536228291181  0.5429860088343547  0.5425367485417568
  0.6246567768842122  0.6239525081579180  0.2927296486290278
  0.7081789045097747  0.7082702024792193  0.3753800902763396
  0.7906232074619716  0.4579911692152004  0.2927280834412528
  0.8749382282699971  0.5415141087267715  0.3753790159897188
  0.7922628275162962  0.6255982259220547  0.4586662029381818
  0.8754252818405489  0.7087601756986603  0.5419239263731267
  0.6255902410097495  0.4589239396212581  0.7927329986837309
  0.7088164035119587  0.5421515280053592  0.8758148740656739
  0.6255902596130076  0.6260681161111548  0.6255889623804571
  0.7088156146087711  0.7091495233808504  0.7088160647280645
  0.7927380310416293  0.4589241568362334  0.6255893284051288
  0.8758142467792766  0.5421511961808575  0.7088165997689291
  0.7922639013063486  0.2920006027020741  0.7922636780936306
  0.6243407176177788  0.9592709541979096  0.6243395282121482
  0.8749355880159529  0.2087134353464331  0.7081795576574311
  0.7096587821383632  0.3758691453105074  0.7096532964258964
  0.7918012412041753  0.7922777368742350  0.6250880507807037
  0.8750041601529218  0.8755063077329864  0.7082921039990357
  0.7914300657984134  0.9589134720503312  0.7914304019506186
  0.8748258838610936  0.0419403299596362  0.8748261174913529
  0.6245467327230587  0.1249342352760265  0.1250937429741424
  0.7084808292164113  0.2086560678892670  0.2079267922543307
  0.6248400550399861  0.2917213222055240  0.9585777092403287
  0.7081331948221278  0.3749544166448461  0.0421443853790572
  0.7914139879155939  0.1251229548371665  0.9582283353255925
  0.8749255964416138  0.2084088743227881  0.0415253718667079
  0.7915924106916667  0.2914230731534509  0.1249709761861746
  0.8744377532873263  0.3746936684863527  0.2088460817785805
  0.6228937836932776  0.1263220025776494  0.4567798370012884
  0.7067543172167110  0.2096606807997209  0.5406195813780189
  0.6228896686303803  0.2901138563283720  0.2929957037201952
  0.7067535316509678  0.3739513411046838  0.3763217531149422
  0.7910638294342879  0.1249945428468195  0.2916615614201093
  0.8745950220156807  0.2082872431649338  0.3749545275143163
  0.7911438371715519  0.2917823615074911  0.4584520650931028
  0.8752261566249467  0.3751006725085828  0.5417645114482643
  0.6246569361560679  0.1260629107759714  0.7906208300037140
  0.7081784919267828  0.2087138306320528  0.8749373636378862
  0.6250965801558664  0.2946349431903011  0.6250890997594379
  0.7906247200831564  0.1260637379064297  0.6246581149865233
  0.4586444434112292  0.1258604202358762  0.2925248802764029
  0.3689207219102762  0.3801487765173090  0.3689233836032643
  0.2925281015048775  0.2919784884428847  0.2925280301806561
  0.1249208638096260  0.1248855361381611  0.9580685928157180
  0.2081959520468115  0.2081469907099805  0.0414177319324800
  0.1244614123648527  0.2915164978119724  0.1244622228387720
  0.2075499967925298  0.3742125572851572  0.2075512171223734
  0.9580851644704474  0.1251386648505404  0.4581679631662260
  0.0418102314791805  0.2083177748667187  0.5413435972110475
  0.9580847049817378  0.2915028372509508  0.2918042435063196
  0.0418110720275300  0.3746783590174831  0.3749855159121834
  0.1250638004688073  0.1250791723841768  0.2917452358904228
  0.2087555303586132  0.2082682420487229  0.3749351542100766
  0.1255836464307316  0.2913558966619091  0.4580232161612670
  0.2095158333765189  0.3741972834318917  0.5408638031795967
  0.9582278001139264  0.1251232940465139  0.7914153787751643
  0.0415247429164593  0.2084097666475838  0.8749263343057502
  0.9585771933116416  0.2917207950574958  0.6248403922420004
  0.0421442295801382  0.3749539525487516  0.7081335097358056
  0.1250938982127373  0.1249339173982679  0.6245467261567609
  0.2079263926168245  0.2086581661385793  0.7084824148773726
  0.1249705848045130  0.2914231548044313  0.7915923693136636
  0.2088456219725089  0.3746941871891177  0.8744385261411792
  0.9580938240925960  0.4581617474316561  0.1253621416920083
  0.0416196384466028  0.5413347405064157  0.2085212457461340
  0.9585413366685377  0.6249576520885260  0.9585419897822242
  0.0414431400885919  0.3747757914553042  0.0414441581702503
  0.0417626980914993  0.7082121180253501  0.0417633932768783
  0.9583224478164394  0.2916326146801093  0.9583236703277673
  0.9580679433738231  0.1248852199550051  0.1249218859672941
  0.0415533157704809  0.8748883046017010  0.2082917158419111
  0.9582143240618830  0.9584092045940161  0.9582147031573033
  0.0415531558623876  0.0416260712506208  0.0415540606149501
  0.1250741929516839  0.7915493007582282  0.9582151546817498
  0.2082911338773683  0.8748882083864613  0.0415542105941499
  0.1249153027533976  0.9582503545966390  0.1249158633542193
  0.2082881285370467  0.0416230999858919  0.2082885637275452
  0.9583227275860405  0.7916581730488820  0.4582978918640218
  0.0414429323824906  0.8747773079403478  0.5414417601717840
  0.9580676871975616  0.9582558398288136  0.2915506498458297
  0.0414174528010360  0.0415303577309601  0.3748123231182536
  0.1249210881039264  0.7914028975113906  0.2915510233709742
  0.2081956923139135  0.8747523493247396  0.3748123933673781
  0.1244610011658821  0.9577958784421104  0.4581835570922873
  0.2075484356821457  0.0408834846574755  0.5408789584992693
  0.9585409383823248  0.7918757594894978  0.7916242415876378
  0.0417623873165070  0.8750973018401271  0.8748781511195561
  0.9580940159445989  0.9586955113148691  0.6248269307714428
  0.0416191256546236  0.0418558293055716  0.7080001852363482
  0.1253613290796248  0.7914290181514017  0.6248280020814421
  0.2085205068181398  0.8749543877219687  0.7080004117178301
  0.1250319148514777  0.9583674295986030  0.7913068288298050
  0.2083218021839409  0.0416561664976362  0.8746519642424235
  0.0414176169456239  0.2081461747479910  0.2081967570069732
  0.1253604144139865  0.4581616398139602  0.9580948391486919
  0.2085195274431759  0.5413348569212680  0.0416192629824018
  0.1250324550298466  0.6246412685201981  0.1250332510828955
  0.3749333644602031  0.0420887953331431  0.3749342416988239
  0.4581679916634886  0.7914201508664886  0.2918028040024438
  0.5413430235531655  0.8751454367046632  0.3749836258675284
  0.4580217642738119  0.9589195640397578  0.4580220510835106
  0.5408656910633667  0.0428518175119679  0.5408625346194489
  0.2917881150624569  0.7915625963418725  0.7914146188193157
  0.3750742772036396  0.8748600486723849  0.8749257434030662
  0.2915975289167188  0.9584285068518430  0.6245467529890476
  0.3753230103260874  0.0412632717997895  0.7084798511448412
  0.4583880204188423  0.7919106639543833  0.6248395973364504
  0.5416194396081291  0.8754799814268689  0.7081322719746379
  0.4580876491816653  0.9583050623257237  0.7915926984211387
  0.5413594188519065  0.0421816063089636  0.8744373528055077
  0.2917444243273026  0.1250795894226165  0.1250632256958232
  0.3749336976783639  0.2082672615084389  0.2087544208852573
  0.2918034611127847  0.2915037699420413  0.9580851876152954
  0.3749852935945170  0.3746770843911234  0.0418098229881945
  0.4581681951890245  0.1251381594592667  0.9580862332066979
  0.5413446096956743  0.2083181912924306  0.0418105841196236
  0.4580228380542836  0.2913558961061719  0.1255856098693572
  0.5408658395147822  0.3741967135594655  0.2095175420542087
  0.2925259571415265  0.1258608547568252  0.4586437753233590
  0.3689165553576120  0.2022523123647459  0.5468160842301821
  0.2917445496298161  0.9583988590750173  0.2917445858100918
  0.3749853149402451  0.8751454967340399  0.5413444705855992
  0.2918029880843986  0.7914201611322483  0.4581687386107123
  0.5408777121931770  0.0408853237684028  0.2075506457925140
  0.2083221643164247  0.7079842891576580  0.2083229529615507
  0.9585786134995244  0.4581739093078940  0.4583862424586725
  0.0421446450387968  0.5414669437927744  0.5416196583353736
  0.9582286901900510  0.6247496021234068  0.2917876674069724
  0.0415254606159926  0.7082600298518122  0.3750748002717890
  0.1250912958055420  0.4578801320140002  0.2915991728201657
  0.2079269228877742  0.5418129992190895  0.3753236289611008
  0.1249699843493660  0.6249273345654200  0.4580876044753123
  0.2088474831978922  0.7077716187930451  0.5413593739616365
  0.9589435574393219  0.4584221160740435  0.7918007115515568
  0.0421710699190760  0.5416268428302092  0.8750043404354856
  0.7920881867744322  0.6254238140901193  0.7920885241664035
  0.9589431546468120  0.6251353429788066  0.6250874822583272
  0.1259347231695431  0.4576737479139318  0.6243402196141651
  0.2090494626477147  0.5411418456924598  0.7078085207183125
  0.1255781462545582  0.6247646928997448  0.7914306439775346
  0.2086052790317117  0.7081606017241793  0.8748265596375268
  0.2915509267685888  0.7914027075327755  0.1249216531665955
  0.3748115908498571  0.8747522256409112  0.2081962979859988
  0.2915499621842466  0.9582558040569803  0.9580688544558476
  0.3748115056419497  0.0415305607327999  0.0414177333978313
  0.4582977093895243  0.7916568765719976  0.9583231158559735
  0.5414408745159165  0.8747786479414450  0.0414431153384512
  0.4581814740670928  0.9577963195904545  0.1244607702430445
  0.0421708511876214  0.7083391617838934  0.7082919878215397
  0.8752923781696030  0.7086276572821999  0.8752929986268611
 
  0.00000000E+00  0.00000000E+00  0.00000000E+00
  0.00000000E+00  0.00000000E+00  0.00000000E+00
  0.00000000E+00  0.00000000E+00  0.00000000E+00
  0.00000000E+00  0.00000000E+00  0.00000000E+00
  0.00000000E+00  0.00000000E+00  0.00000000E+00
  0.00000000E+00  0.00000000E+00  0.00000000E+00
  0.00000000E+00  0.00000000E+00  0.00000000E+00
  0.00000000E+00  0.00000000E+00  0.00000000E+00
  0.00000000E+00  0.00000000E+00  0.00000000E+00
  0.00000000E+00  0.00000000E+00  0.00000000E+00
  0.00000000E+00  0.00000000E+00  0.00000000E+00
  0.00000000E+00  0.00000000E+00  0.00000000E+00
  0.00000000E+00  0.00000000E+00  0.00000000E+00
  0.00000000E+00  0.00000000E+00  0.00000000E+00
  0.00000000E+00  0.00000000E+00  0.00000000E+00
  0.00000000E+00  0.00000000E+00  0.00000000E+00
  0.00000000E+00  0.00000000E+00  0.00000000E+00
  0.00000000E+00  0.00000000E+00  0.00000000E+00
  0.00000000E+00  0.00000000E+00  0.00000000E+00
  0.00000000E+00  0.00000000E+00  0.00000000E+00
  0.00000000E+00  0.00000000E+00  0.00000000E+00
  0.00000000E+00  0.00000000E+00  0.00000000E+00
  0.00000000E+00  0.00000000E+00  0.00000000E+00
  0.00000000E+00  0.00000000E+00  0.00000000E+00
  0.00000000E+00  0.00000000E+00  0.00000000E+00
  0.00000000E+00  0.00000000E+00  0.00000000E+00
  0.00000000E+00  0.00000000E+00  0.00000000E+00
  0.00000000E+00  0.00000000E+00  0.00000000E+00
  0.00000000E+00  0.00000000E+00  0.00000000E+00
  0.00000000E+00  0.00000000E+00  0.00000000E+00
  0.00000000E+00  0.00000000E+00  0.00000000E+00
  0.00000000E+00  0.00000000E+00  0.00000000E+00
  0.00000000E+00  0.00000000E+00  0.00000000E+00
  0.00000000E+00  0.00000000E+00  0.00000000E+00
  0.00000000E+00  0.00000000E+00  0.00000000E+00
  0.00000000E+00  0.00000000E+00  0.00000000E+00
  0.00000000E+00  0.00000000E+00  0.00000000E+00
  0.00000000E+00  0.00000000E+00  0.00000000E+00
  0.00000000E+00  0.00000000E+00  0.00000000E+00
  0.00000000E+00  0.00000000E+00  0.00000000E+00
  0.00000000E+00  0.00000000E+00  0.00000000E+00
  0.00000000E+00  0.00000000E+00  0.00000000E+00
  0.00000000E+00  0.00000000E+00  0.00000000E+00
  0.00000000E+00  0.00000000E+00  0.00000000E+00
  0.00000000E+00  0.00000000E+00  0.00000000E+00
  0.00000000E+00  0.00000000E+00  0.00000000E+00
  0.00000000E+00  0.00000000E+00  0.00000000E+00
  0.00000000E+00  0.00000000E+00  0.00000000E+00
  0.00000000E+00  0.00000000E+00  0.00000000E+00
  0.00000000E+00  0.00000000E+00  0.00000000E+00
  0.00000000E+00  0.00000000E+00  0.00000000E+00
  0.00000000E+00  0.00000000E+00  0.00000000E+00
  0.00000000E+00  0.00000000E+00  0.00000000E+00
  0.00000000E+00  0.00000000E+00  0.00000000E+00
  0.00000000E+00  0.00000000E+00  0.00000000E+00
  0.00000000E+00  0.00000000E+00  0.00000000E+00
  0.00000000E+00  0.00000000E+00  0.00000000E+00
  0.00000000E+00  0.00000000E+00  0.00000000E+00
  0.00000000E+00  0.00000000E+00  0.00000000E+00
  0.00000000E+00  0.00000000E+00  0.00000000E+00
  0.00000000E+00  0.00000000E+00  0.00000000E+00
  0.00000000E+00  0.00000000E+00  0.00000000E+00
  0.00000000E+00  0.00000000E+00  0.00000000E+00
  0.00000000E+00  0.00000000E+00  0.00000000E+00
  0.00000000E+00  0.00000000E+00  0.00000000E+00
  0.00000000E+00  0.00000000E+00  0.00000000E+00
  0.00000000E+00  0.00000000E+00  0.00000000E+00
  0.00000000E+00  0.00000000E+00  0.00000000E+00
  0.00000000E+00  0.00000000E+00  0.00000000E+00
  0.00000000E+00  0.00000000E+00  0.00000000E+00
  0.00000000E+00  0.00000000E+00  0.00000000E+00
  0.00000000E+00  0.00000000E+00  0.00000000E+00
  0.00000000E+00  0.00000000E+00  0.00000000E+00
  0.00000000E+00  0.00000000E+00  0.00000000E+00
  0.00000000E+00  0.00000000E+00  0.00000000E+00
  0.00000000E+00  0.00000000E+00  0.00000000E+00
  0.00000000E+00  0.00000000E+00  0.00000000E+00
  0.00000000E+00  0.00000000E+00  0.00000000E+00
  0.00000000E+00  0.00000000E+00  0.00000000E+00
  0.00000000E+00  0.00000000E+00  0.00000000E+00
  0.00000000E+00  0.00000000E+00  0.00000000E+00
  0.00000000E+00  0.00000000E+00  0.00000000E+00
  0.00000000E+00  0.00000000E+00  0.00000000E+00
  0.00000000E+00  0.00000000E+00  0.00000000E+00
  0.00000000E+00  0.00000000E+00  0.00000000E+00
  0.00000000E+00  0.00000000E+00  0.00000000E+00
  0.00000000E+00  0.00000000E+00  0.00000000E+00
  0.00000000E+00  0.00000000E+00  0.00000000E+00
  0.00000000E+00  0.00000000E+00  0.00000000E+00
  0.00000000E+00  0.00000000E+00  0.00000000E+00
  0.00000000E+00  0.00000000E+00  0.00000000E+00
  0.00000000E+00  0.00000000E+00  0.00000000E+00
  0.00000000E+00  0.00000000E+00  0.00000000E+00
  0.00000000E+00  0.00000000E+00  0.00000000E+00
  0.00000000E+00  0.00000000E+00  0.00000000E+00
  0.00000000E+00  0.00000000E+00  0.00000000E+00
  0.00000000E+00  0.00000000E+00  0.00000000E+00
  0.00000000E+00  0.00000000E+00  0.00000000E+00
  0.00000000E+00  0.00000000E+00  0.00000000E+00
  0.00000000E+00  0.00000000E+00  0.00000000E+00
  0.00000000E+00  0.00000000E+00  0.00000000E+00
  0.00000000E+00  0.00000000E+00  0.00000000E+00
  0.00000000E+00  0.00000000E+00  0.00000000E+00
  0.00000000E+00  0.00000000E+00  0.00000000E+00
  0.00000000E+00  0.00000000E+00  0.00000000E+00
  0.00000000E+00  0.00000000E+00  0.00000000E+00
  0.00000000E+00  0.00000000E+00  0.00000000E+00
  0.00000000E+00  0.00000000E+00  0.00000000E+00
  0.00000000E+00  0.00000000E+00  0.00000000E+00
  0.00000000E+00  0.00000000E+00  0.00000000E+00
  0.00000000E+00  0.00000000E+00  0.00000000E+00
  0.00000000E+00  0.00000000E+00  0.00000000E+00
  0.00000000E+00  0.00000000E+00  0.00000000E+00
  0.00000000E+00  0.00000000E+00  0.00000000E+00
  0.00000000E+00  0.00000000E+00  0.00000000E+00
  0.00000000E+00  0.00000000E+00  0.00000000E+00
  0.00000000E+00  0.00000000E+00  0.00000000E+00
  0.00000000E+00  0.00000000E+00  0.00000000E+00
  0.00000000E+00  0.00000000E+00  0.00000000E+00
  0.00000000E+00  0.00000000E+00  0.00000000E+00
  0.00000000E+00  0.00000000E+00  0.00000000E+00
  0.00000000E+00  0.00000000E+00  0.00000000E+00
  0.00000000E+00  0.00000000E+00  0.00000000E+00
  0.00000000E+00  0.00000000E+00  0.00000000E+00
  0.00000000E+00  0.00000000E+00  0.00000000E+00
  0.00000000E+00  0.00000000E+00  0.00000000E+00
  0.00000000E+00  0.00000000E+00  0.00000000E+00
  0.00000000E+00  0.00000000E+00  0.00000000E+00
  0.00000000E+00  0.00000000E+00  0.00000000E+00
  0.00000000E+00  0.00000000E+00  0.00000000E+00
  0.00000000E+00  0.00000000E+00  0.00000000E+00
  0.00000000E+00  0.00000000E+00  0.00000000E+00
  0.00000000E+00  0.00000000E+00  0.00000000E+00
  0.00000000E+00  0.00000000E+00  0.00000000E+00
  0.00000000E+00  0.00000000E+00  0.00000000E+00
  0.00000000E+00  0.00000000E+00  0.00000000E+00
  0.00000000E+00  0.00000000E+00  0.00000000E+00
  0.00000000E+00  0.00000000E+00  0.00000000E+00
  0.00000000E+00  0.00000000E+00  0.00000000E+00
  0.00000000E+00  0.00000000E+00  0.00000000E+00
  0.00000000E+00  0.00000000E+00  0.00000000E+00
  0.00000000E+00  0.00000000E+00  0.00000000E+00
  0.00000000E+00  0.00000000E+00  0.00000000E+00
  0.00000000E+00  0.00000000E+00  0.00000000E+00
  0.00000000E+00  0.00000000E+00  0.00000000E+00
  0.00000000E+00  0.00000000E+00  0.00000000E+00
  0.00000000E+00  0.00000000E+00  0.00000000E+00
  0.00000000E+00  0.00000000E+00  0.00000000E+00
  0.00000000E+00  0.00000000E+00  0.00000000E+00
  0.00000000E+00  0.00000000E+00  0.00000000E+00
  0.00000000E+00  0.00000000E+00  0.00000000E+00
  0.00000000E+00  0.00000000E+00  0.00000000E+00
  0.00000000E+00  0.00000000E+00  0.00000000E+00
  0.00000000E+00  0.00000000E+00  0.00000000E+00
  0.00000000E+00  0.00000000E+00  0.00000000E+00
  0.00000000E+00  0.00000000E+00  0.00000000E+00
  0.00000000E+00  0.00000000E+00  0.00000000E+00
  0.00000000E+00  0.00000000E+00  0.00000000E+00
  0.00000000E+00  0.00000000E+00  0.00000000E+00
  0.00000000E+00  0.00000000E+00  0.00000000E+00
  0.00000000E+00  0.00000000E+00  0.00000000E+00
  0.00000000E+00  0.00000000E+00  0.00000000E+00
  0.00000000E+00  0.00000000E+00  0.00000000E+00
  0.00000000E+00  0.00000000E+00  0.00000000E+00
  0.00000000E+00  0.00000000E+00  0.00000000E+00
  0.00000000E+00  0.00000000E+00  0.00000000E+00
  0.00000000E+00  0.00000000E+00  0.00000000E+00
  0.00000000E+00  0.00000000E+00  0.00000000E+00
  0.00000000E+00  0.00000000E+00  0.00000000E+00
  0.00000000E+00  0.00000000E+00  0.00000000E+00
  0.00000000E+00  0.00000000E+00  0.00000000E+00
  0.00000000E+00  0.00000000E+00  0.00000000E+00
  0.00000000E+00  0.00000000E+00  0.00000000E+00
  0.00000000E+00  0.00000000E+00  0.00000000E+00
  0.00000000E+00  0.00000000E+00  0.00000000E+00
  0.00000000E+00  0.00000000E+00  0.00000000E+00
  0.00000000E+00  0.00000000E+00  0.00000000E+00
  0.00000000E+00  0.00000000E+00  0.00000000E+00
  0.00000000E+00  0.00000000E+00  0.00000000E+00
  0.00000000E+00  0.00000000E+00  0.00000000E+00
  0.00000000E+00  0.00000000E+00  0.00000000E+00
  0.00000000E+00  0.00000000E+00  0.00000000E+00
  0.00000000E+00  0.00000000E+00  0.00000000E+00
  0.00000000E+00  0.00000000E+00  0.00000000E+00
  0.00000000E+00  0.00000000E+00  0.00000000E+00
  0.00000000E+00  0.00000000E+00  0.00000000E+00
  0.00000000E+00  0.00000000E+00  0.00000000E+00
  0.00000000E+00  0.00000000E+00  0.00000000E+00
  0.00000000E+00  0.00000000E+00  0.00000000E+00
  0.00000000E+00  0.00000000E+00  0.00000000E+00
  0.00000000E+00  0.00000000E+00  0.00000000E+00
  0.00000000E+00  0.00000000E+00  0.00000000E+00
  0.00000000E+00  0.00000000E+00  0.00000000E+00
  0.00000000E+00  0.00000000E+00  0.00000000E+00
  0.00000000E+00  0.00000000E+00  0.00000000E+00
  0.00000000E+00  0.00000000E+00  0.00000000E+00
  0.00000000E+00  0.00000000E+00  0.00000000E+00
  0.00000000E+00  0.00000000E+00  0.00000000E+00
  0.00000000E+00  0.00000000E+00  0.00000000E+00
  0.00000000E+00  0.00000000E+00  0.00000000E+00
  0.00000000E+00  0.00000000E+00  0.00000000E+00
  0.00000000E+00  0.00000000E+00  0.00000000E+00
  0.00000000E+00  0.00000000E+00  0.00000000E+00
  0.00000000E+00  0.00000000E+00  0.00000000E+00
  0.00000000E+00  0.00000000E+00  0.00000000E+00
  0.00000000E+00  0.00000000E+00  0.00000000E+00
  0.00000000E+00  0.00000000E+00  0.00000000E+00
  0.00000000E+00  0.00000000E+00  0.00000000E+00
  0.00000000E+00  0.00000000E+00  0.00000000E+00
  0.00000000E+00  0.00000000E+00  0.00000000E+00
  0.00000000E+00  0.00000000E+00  0.00000000E+00
  0.00000000E+00  0.00000000E+00  0.00000000E+00
  0.00000000E+00  0.00000000E+00  0.00000000E+00
  0.00000000E+00  0.00000000E+00  0.00000000E+00
  0.00000000E+00  0.00000000E+00  0.00000000E+00
