#algorithm
ALGO  =  Normal

# accuracy
PREC   =  Normal
LREAL  =  Auto
EDIFF  =  1e-05
ENCUT  =  520.0
LASPH  =  True
NELM   =  100

# ionic relaxation
ISIF    =  2
IBRION  =  8

# occupation
ISMEAR  =  -2
SIGMA   =  0.1
FERWE = 430*1.0 2*1.0 208*0.0 
FERDO = 430*1.0 2*0.0 208*0.0
NELECT =  862
NBANDS = 640 

# spin
ISPIN  =  2

# IO control
LWAVE   =  False
LCHARG  =  False
