x3                                      
   1.00000000000000     
    10.6822376251000009    0.0000000000000000    0.0000000000000000
    -0.0000014224000000   10.6822347641000004    0.0000000000000000
    -0.0000014224000000   -0.0000085346000000   10.6822347641000004
   N    C 
     1   214
Direct
  0.5502491494380053  0.3835829428398306  0.5502491129529655
  0.9582097784111933  0.7915438518161734  0.1250750777721911
  0.3754421142775882  0.5415973675701272  0.8748690849853868
  0.2916647825425602  0.1249988712351792  0.7912776185619806
  0.2928496307990342  0.6239304873909534  0.6247136243059930
  0.3754420039755225  0.7082029164929138  0.7082631788926723
  0.4625938421845440  0.4583287518613602  0.6249951397850217
  0.5422724480238900  0.5431109003397829  0.7097769495838164
  0.4588640816153213  0.6256530905167005  0.7923190939926983
  0.5418991854013248  0.7087561903642878  0.8754220677906145
  0.6248792201292069  0.7913960001676801  0.1253420022130324
  0.7080798493785285  0.8748691082934289  0.2084838954999841
  0.6248792079563101  0.9586760885785223  0.9580618834158710
  0.7080799632521703  0.0418180856636317  0.0415349316330837
  0.7916544260165315  0.7918681368291973  0.9585337923652740
  0.8748818413515701  0.8750757622111497  0.0417414981706634
  0.7913512067013302  0.9583559013648971  0.1250216883187902
  0.8746813719284676  0.0416322934246371  0.2082981620739313
  0.6248914566489109  0.7918133918401321  0.4584546414923662
  0.7082096392951895  0.8753722346692887  0.5416808709762638
  0.6246520605543578  0.9582424347620736  0.2915661999354758
  0.7084092019531087  0.0413316195262815  0.3752440333801499
  0.7914352413898761  0.7915194276743033  0.2918319295249895
  0.8749190593617823  0.8748459505209529  0.3750918252400543
  0.7916137387815412  0.9583129641235556  0.4581822314084194
  0.8744152663703163  0.0422332680496105  0.5414698171858000
  0.2928495780056068  0.4580476823055933  0.7905969268676986
  0.6251618668662969  0.7922006537327325  0.7918250545793174
  0.5418681162952086  0.7084592679785413  0.5418681148511235
  0.5409469064351659  0.5399769620253760  0.3766955041784665
  0.3750454701930669  0.2083795582168867  0.8745659323619441
  0.2928807174399209  0.2907014880464259  0.6232304235274247
  0.3766954650335428  0.3742807713333796  0.7066437737976594
  0.4573674160015655  0.1262151094569109  0.6232299887815277
  0.5409467569235835  0.2100295844787053  0.7066434978224597
  0.4585211021505998  0.2918551568184519  0.7911239191288872
  0.5418682250342679  0.3752023540389974  0.8751255411355306
  0.2915663878144548  0.4579858924590272  0.1249085654337029
  0.3752443499041037  0.5417426800646309  0.2079978826881076
  0.2918320471157647  0.6247693659651744  0.9581855677077022
  0.3750919205787911  0.7082530101661780  0.0415121509007120
  0.4584547760448456  0.4582256401027922  0.9584795358917091
  0.5416811622714671  0.5415437835583502  0.0420382647765365
  0.4581824470028090  0.6249475258536625  0.1249791706903447
  0.5414698823112750  0.7077491796481217  0.2088992912121501
  0.2928811795725367  0.4565634898384167  0.4573677910422919
  0.3766955188841038  0.5399769431489139  0.5409468928531573
  0.2916651208171392  0.6246109168555388  0.2916651173411560
  0.3750455805557806  0.7078994388741293  0.3750455738241656
  0.4573678254345561  0.4565634889516317  0.2928811701280805
  0.4585211709880310  0.6244572822106862  0.4585211619478762
  0.5449233596388768  0.2023941006462152  0.3690598594478323
  0.7083149102771950  0.8754738302512287  0.8749886115066173
  0.7078754676105714  0.0424545832587738  0.7078754744560037
  0.8754220864292033  0.3752335158248006  0.8754220867210639
  0.6245197414429337  0.4578535711330122  0.1257644602608722
  0.7078757253825764  0.5412096071292309  0.2091204194651013
  0.6251619416397681  0.6251592822651866  0.9588665279816895
  0.7083150242327411  0.7083229150717218  0.0421396273964635
  0.7918252245348704  0.4584961829801227  0.9588664846531054
  0.8749887639492051  0.5416492939124666  0.0421396555221617
  0.7914552615386448  0.6247893751852286  0.1255828973519763
  0.8748264302670455  0.7081604882173347  0.2086080297682028
  0.6249951756957879  0.4583287790263232  0.4625938217048485
  0.7097769492025521  0.5431109131105787  0.5422724511885784
  0.6247136354811875  0.6239305024430095  0.2928496140953218
  0.7082631809756275  0.7082029262037390  0.3754419946722721
  0.7905969342953280  0.4580476944374594  0.2928495693115618
  0.8748690876581848  0.5415973710142723  0.3754421070991627
  0.7923190862440634  0.6256530949415275  0.4588640877492085
  0.8754220658575598  0.7087561913204596  0.5418991899755244
  0.6256731584356066  0.4590071994295554  0.7926034209804617
  0.7087709744910163  0.5421051867413743  0.8757224123607540
  0.6256730736106939  0.6259373175777012  0.6256730893557579
  0.7087708614482907  0.7090565021958132  0.7087708719895007
  0.7926034116411819  0.4590071974952651  0.6256731719928627
  0.8757224064895939  0.5421051883843373  0.7087709832504009
  0.7923190398955898  0.2921982588433438  0.7923190481843922
  0.6245194061480505  0.9590986531619929  0.6245194101375986
  0.8748689216950956  0.2087762598032462  0.7082632069660240
  0.7097768798200256  0.3756066496995830  0.7097768841283801
  0.7918250428128060  0.7922006507370885  0.6251618797759091
  0.8749886072917088  0.8754738273403448  0.7083149170387434
  0.7914550768042578  0.9589171837635426  0.7914550856064142
  0.8748262869664988  0.0419422721492284  0.8748262897545038
  0.6246521673037408  0.1249002800999592  0.1249083110455209
  0.7084095521767338  0.2085780981955136  0.2079974717013233
  0.6248916958781860  0.2917887726166221  0.9584793910320016
  0.7082099247754671  0.3750150933937235  0.0420381690253607
  0.7914353173751291  0.1251662385661890  0.9581852893564113
  0.8749190771591219  0.2084260548497224  0.0415118731075186
  0.7916140066068266  0.2915165085004881  0.1249788633787147
  0.8744155000517991  0.3748040660023103  0.2088992107776709
  0.6232299869942003  0.1262151282690258  0.4573673891829226
  0.7066435040893787  0.2100295882559473  0.5409467535220678
  0.6232304212017222  0.2907014939976715  0.2928807329895135
  0.7066437842621518  0.3742807861782235  0.3766954589701796
  0.7912776188644515  0.1249988810365550  0.2916647891867828
  0.8745659366024927  0.2083795631067981  0.3750454659989311
  0.7911239167234856  0.2918551646838814  0.4585211050787197
  0.8751255439272350  0.3752023539279581  0.5418682258358882
  0.6247135487106478  0.1261837066935544  0.7905966591475555
  0.7082632024236752  0.2087762578958698  0.8748689258456525
  0.6249951526352633  0.2959277413801302  0.6249951314827539
  0.7905966523130294  0.1261837110128865  0.6247135481763347
  0.4585866507470439  0.1248756179402423  0.2915415388421059
  0.3690604063316663  0.3782559753538358  0.3690603775983467
  0.2915416606000761  0.2919202135494587  0.2915416516784845
  0.1248934169401539  0.1248935138732116  0.9580567868981374
  0.2081565979692927  0.2081600739796451  0.0413122082858044
  0.1243225616164209  0.2915425105330471  0.1243225546258790
  0.2073062285542866  0.3742735555275535  0.2073062196251173
  0.9580229326348948  0.1251417361124381  0.4581993094331481
  0.0416797009793540  0.2083502428653969  0.5414216879949800
  0.9580230900398369  0.2915333437977266  0.2918077779773781
  0.0416798273391170  0.3747555381932157  0.3750163983994837
  0.1249026506539506  0.1249562121892470  0.2916221756028161
  0.2084976553823844  0.2081097125233218  0.3747758883434764
  0.1253809891114109  0.2913793877804323  0.4580456983613858
  0.2092187068015143  0.3743957263799740  0.5410624595830812
  0.9581852844357882  0.1251662368808890  0.7914353263156213
  0.0415118713110283  0.2084260519591314  0.8749190785991715
  0.9584793843831415  0.2917887718140471  0.6248917016141441
  0.0420381713236531  0.3750150891076220  0.7082099266155131
  0.1249082910425013  0.1249002654465331  0.6246521738198099
  0.2079974617812976  0.2085780909398506  0.7084095522286955
  0.1249788572717651  0.2915165022455078  0.7916140120656369
  0.2088992215912073  0.3748040583261031  0.8744154965275733
  0.9580621248167307  0.4582134239118696  0.1253420035978113
  0.0415352169080420  0.5414139706827801  0.2084841191479467
  0.9585339166682034  0.6249887021844690  0.9585339171851764
  0.0413853486377053  0.3748131810445998  0.0413853437131167
  0.0417416553849953  0.7082160038566059  0.0417416512504635
  0.9583012563030612  0.2917047746932283  0.9583012622777382
  0.9580567880916008  0.1248935157327146  0.1248934149721562
  0.0415280361314340  0.8748619359595994  0.2082845963813596
  0.9582096744750420  0.9584093671103481  0.9582096790514781
  0.0415279301884190  0.0416186862049415  0.0415279246145585
  0.1250750747491748  0.7915438509059914  0.9582097810971476
  0.2082846030290659  0.8748619341415980  0.0415280288082951
  0.1248755177750713  0.9582096017512337  0.1248755181177895
  0.2081865229128113  0.0415205291623786  0.2081865146304469
  0.9583012474329733  0.7916352216215015  0.4583704724262348
  0.0413852773817104  0.8747193359216229  0.5414788489553589
  0.9580567721640877  0.9582274979052051  0.2915593138326891
  0.0413121877054852  0.0414905241837075  0.3748259100252965
  0.1248936564327096  0.7913906511583347  0.2915594435978643
  0.2081566462229201  0.8746461584458296  0.3748259844257169
  0.1243225636506180  0.9576565467830397  0.4582084423036146
  0.2073059970857002  0.0406401091797283  0.5409397573155618
  0.9585337847420230  0.7918681291742905  0.7916544343309669
  0.0417415007662914  0.8750757585520235  0.8748818408197023
  0.9580618717014913  0.9586760833828610  0.6248792177620124
  0.0415349281218934  0.0418180801493003  0.7080799708980503
  0.1253420010499321  0.7913959880880168  0.6248792269614419
  0.2084838997368577  0.8748690964785568  0.7080798590677081
  0.1250216861568454  0.9583558965214272  0.7913512160750785
  0.2082981670978917  0.0416322909551014  0.8746813661691567
  0.0413122171357524  0.2081600757973792  0.2081565954795198
  0.1253420068960659  0.4582134212009306  0.9580621269829359
  0.2084841249858042  0.5414139716506343  0.0415352119533104
  0.1250219030253871  0.6246852235011754  0.1250219021828384
  0.3747758116444694  0.0418318638924007  0.3747758180195186
  0.4581992638881123  0.7913567948517023  0.2918078233740644
  0.5414215241052273  0.8750137234460373  0.3750162129075257
  0.4580454932127790  0.9587151695781799  0.4580454937467434
  0.5410620279546434  0.0425528083011574  0.5410620188208958
  0.2918319304359644  0.7915194195961680  0.7914352476475279
  0.3750918274941417  0.8748459507462827  0.8749190555306536
  0.2915661967305692  0.9582424197717437  0.6246520649247923
  0.3752440369875475  0.0413316092191145  0.7084091994476026
  0.4584546420575246  0.7918133919473623  0.6248914586815851
  0.5416808649479705  0.8753722375381612  0.7082096385027743
  0.4581822268715554  0.9583129637415667  0.7916137422362661
  0.5414698189565653  0.0422332682178244  0.8744152706987780
  0.2916221729419698  0.1249562087593507  0.1249026540888675
  0.3747758853119752  0.2081097120568483  0.2084976597752291
  0.2918077840458010  0.2915333405867123  0.9580230885060456
  0.3750164031861169  0.3747555366287702  0.0416798193300977
  0.4581993111923002  0.1251417359322856  0.9580229377874208
  0.5414216890907331  0.2083502467606438  0.0416796987913234
  0.4580456989637988  0.2913793904634584  0.1253809947765901
  0.5410624763371908  0.3743957299459120  0.2092186952892757
  0.2915415078356789  0.1248755792119214  0.4585866701695289
  0.3690597984457384  0.2023940163255163  0.5449234050976342
  0.2916222325920286  0.9582367715415103  0.2916222337314193
  0.3750162118569075  0.8750137179585910  0.5414215243356466
  0.2918078270295832  0.7913567918520543  0.4581992579390199
  0.5409397542322608  0.0406401387417173  0.2073060161627884
  0.2082984513246404  0.7080150938338883  0.2082984431502873
  0.9584795325982280  0.4582256428817202  0.4584547771589896
  0.0420382660695798  0.5415437858124366  0.5416811636718727
  0.9581855665374989  0.6247693675742075  0.2918320473580169
  0.0415121497469284  0.7082530131620457  0.3750919161294223
  0.1249085624651701  0.4579858950637764  0.2915663781050369
  0.2079978838916768  0.5417426825324497  0.3752443394825976
  0.1249791659556851  0.6249475264023496  0.4581824446580284
  0.2088993031216209  0.7077491690403658  0.5414698736148770
  0.9588664765279820  0.4584961783696710  0.7918252343979373
  0.0421396600867650  0.5416492923210876  0.8749887634519803
  0.7920878535127696  0.6254220661342681  0.7920878632608794
  0.9588665169371691  0.6251592791329240  0.6251619536590155
  0.1257644685051903  0.4578535656970936  0.6245197406814833
  0.2091204320313926  0.5412095944458514  0.7078757200072374
  0.1255829014642184  0.6247893670689181  0.7914552627925493
  0.2086080360333905  0.7081604821591284  0.8748264269095286
  0.2915594466930403  0.7913906548972360  0.1248936547300404
  0.3748259919895848  0.8746461613392901  0.2081566400529494
  0.2915593172444899  0.9582274967629140  0.9580567736728547
  0.3748259182349975  0.0414905189529847  0.0413121818776412
  0.4583704709777227  0.7916352252786213  0.9583012554213653
  0.5414788543265144  0.8747193465140859  0.0413852819285163
  0.4582084481412700  0.9576565660890367  0.1243225772684570
  0.0421396296346828  0.7083229087788150  0.7083150293740416
  0.8752601438013742  0.7085944462164084  0.8752601458001834
 
  0.00000000E+00  0.00000000E+00  0.00000000E+00
  0.00000000E+00  0.00000000E+00  0.00000000E+00
  0.00000000E+00  0.00000000E+00  0.00000000E+00
  0.00000000E+00  0.00000000E+00  0.00000000E+00
  0.00000000E+00  0.00000000E+00  0.00000000E+00
  0.00000000E+00  0.00000000E+00  0.00000000E+00
  0.00000000E+00  0.00000000E+00  0.00000000E+00
  0.00000000E+00  0.00000000E+00  0.00000000E+00
  0.00000000E+00  0.00000000E+00  0.00000000E+00
  0.00000000E+00  0.00000000E+00  0.00000000E+00
  0.00000000E+00  0.00000000E+00  0.00000000E+00
  0.00000000E+00  0.00000000E+00  0.00000000E+00
  0.00000000E+00  0.00000000E+00  0.00000000E+00
  0.00000000E+00  0.00000000E+00  0.00000000E+00
  0.00000000E+00  0.00000000E+00  0.00000000E+00
  0.00000000E+00  0.00000000E+00  0.00000000E+00
  0.00000000E+00  0.00000000E+00  0.00000000E+00
  0.00000000E+00  0.00000000E+00  0.00000000E+00
  0.00000000E+00  0.00000000E+00  0.00000000E+00
  0.00000000E+00  0.00000000E+00  0.00000000E+00
  0.00000000E+00  0.00000000E+00  0.00000000E+00
  0.00000000E+00  0.00000000E+00  0.00000000E+00
  0.00000000E+00  0.00000000E+00  0.00000000E+00
  0.00000000E+00  0.00000000E+00  0.00000000E+00
  0.00000000E+00  0.00000000E+00  0.00000000E+00
  0.00000000E+00  0.00000000E+00  0.00000000E+00
  0.00000000E+00  0.00000000E+00  0.00000000E+00
  0.00000000E+00  0.00000000E+00  0.00000000E+00
  0.00000000E+00  0.00000000E+00  0.00000000E+00
  0.00000000E+00  0.00000000E+00  0.00000000E+00
  0.00000000E+00  0.00000000E+00  0.00000000E+00
  0.00000000E+00  0.00000000E+00  0.00000000E+00
  0.00000000E+00  0.00000000E+00  0.00000000E+00
  0.00000000E+00  0.00000000E+00  0.00000000E+00
  0.00000000E+00  0.00000000E+00  0.00000000E+00
  0.00000000E+00  0.00000000E+00  0.00000000E+00
  0.00000000E+00  0.00000000E+00  0.00000000E+00
  0.00000000E+00  0.00000000E+00  0.00000000E+00
  0.00000000E+00  0.00000000E+00  0.00000000E+00
  0.00000000E+00  0.00000000E+00  0.00000000E+00
  0.00000000E+00  0.00000000E+00  0.00000000E+00
  0.00000000E+00  0.00000000E+00  0.00000000E+00
  0.00000000E+00  0.00000000E+00  0.00000000E+00
  0.00000000E+00  0.00000000E+00  0.00000000E+00
  0.00000000E+00  0.00000000E+00  0.00000000E+00
  0.00000000E+00  0.00000000E+00  0.00000000E+00
  0.00000000E+00  0.00000000E+00  0.00000000E+00
  0.00000000E+00  0.00000000E+00  0.00000000E+00
  0.00000000E+00  0.00000000E+00  0.00000000E+00
  0.00000000E+00  0.00000000E+00  0.00000000E+00
  0.00000000E+00  0.00000000E+00  0.00000000E+00
  0.00000000E+00  0.00000000E+00  0.00000000E+00
  0.00000000E+00  0.00000000E+00  0.00000000E+00
  0.00000000E+00  0.00000000E+00  0.00000000E+00
  0.00000000E+00  0.00000000E+00  0.00000000E+00
  0.00000000E+00  0.00000000E+00  0.00000000E+00
  0.00000000E+00  0.00000000E+00  0.00000000E+00
  0.00000000E+00  0.00000000E+00  0.00000000E+00
  0.00000000E+00  0.00000000E+00  0.00000000E+00
  0.00000000E+00  0.00000000E+00  0.00000000E+00
  0.00000000E+00  0.00000000E+00  0.00000000E+00
  0.00000000E+00  0.00000000E+00  0.00000000E+00
  0.00000000E+00  0.00000000E+00  0.00000000E+00
  0.00000000E+00  0.00000000E+00  0.00000000E+00
  0.00000000E+00  0.00000000E+00  0.00000000E+00
  0.00000000E+00  0.00000000E+00  0.00000000E+00
  0.00000000E+00  0.00000000E+00  0.00000000E+00
  0.00000000E+00  0.00000000E+00  0.00000000E+00
  0.00000000E+00  0.00000000E+00  0.00000000E+00
  0.00000000E+00  0.00000000E+00  0.00000000E+00
  0.00000000E+00  0.00000000E+00  0.00000000E+00
  0.00000000E+00  0.00000000E+00  0.00000000E+00
  0.00000000E+00  0.00000000E+00  0.00000000E+00
  0.00000000E+00  0.00000000E+00  0.00000000E+00
  0.00000000E+00  0.00000000E+00  0.00000000E+00
  0.00000000E+00  0.00000000E+00  0.00000000E+00
  0.00000000E+00  0.00000000E+00  0.00000000E+00
  0.00000000E+00  0.00000000E+00  0.00000000E+00
  0.00000000E+00  0.00000000E+00  0.00000000E+00
  0.00000000E+00  0.00000000E+00  0.00000000E+00
  0.00000000E+00  0.00000000E+00  0.00000000E+00
  0.00000000E+00  0.00000000E+00  0.00000000E+00
  0.00000000E+00  0.00000000E+00  0.00000000E+00
  0.00000000E+00  0.00000000E+00  0.00000000E+00
  0.00000000E+00  0.00000000E+00  0.00000000E+00
  0.00000000E+00  0.00000000E+00  0.00000000E+00
  0.00000000E+00  0.00000000E+00  0.00000000E+00
  0.00000000E+00  0.00000000E+00  0.00000000E+00
  0.00000000E+00  0.00000000E+00  0.00000000E+00
  0.00000000E+00  0.00000000E+00  0.00000000E+00
  0.00000000E+00  0.00000000E+00  0.00000000E+00
  0.00000000E+00  0.00000000E+00  0.00000000E+00
  0.00000000E+00  0.00000000E+00  0.00000000E+00
  0.00000000E+00  0.00000000E+00  0.00000000E+00
  0.00000000E+00  0.00000000E+00  0.00000000E+00
  0.00000000E+00  0.00000000E+00  0.00000000E+00
  0.00000000E+00  0.00000000E+00  0.00000000E+00
  0.00000000E+00  0.00000000E+00  0.00000000E+00
  0.00000000E+00  0.00000000E+00  0.00000000E+00
  0.00000000E+00  0.00000000E+00  0.00000000E+00
  0.00000000E+00  0.00000000E+00  0.00000000E+00
  0.00000000E+00  0.00000000E+00  0.00000000E+00
  0.00000000E+00  0.00000000E+00  0.00000000E+00
  0.00000000E+00  0.00000000E+00  0.00000000E+00
  0.00000000E+00  0.00000000E+00  0.00000000E+00
  0.00000000E+00  0.00000000E+00  0.00000000E+00
  0.00000000E+00  0.00000000E+00  0.00000000E+00
  0.00000000E+00  0.00000000E+00  0.00000000E+00
  0.00000000E+00  0.00000000E+00  0.00000000E+00
  0.00000000E+00  0.00000000E+00  0.00000000E+00
  0.00000000E+00  0.00000000E+00  0.00000000E+00
  0.00000000E+00  0.00000000E+00  0.00000000E+00
  0.00000000E+00  0.00000000E+00  0.00000000E+00
  0.00000000E+00  0.00000000E+00  0.00000000E+00
  0.00000000E+00  0.00000000E+00  0.00000000E+00
  0.00000000E+00  0.00000000E+00  0.00000000E+00
  0.00000000E+00  0.00000000E+00  0.00000000E+00
  0.00000000E+00  0.00000000E+00  0.00000000E+00
  0.00000000E+00  0.00000000E+00  0.00000000E+00
  0.00000000E+00  0.00000000E+00  0.00000000E+00
  0.00000000E+00  0.00000000E+00  0.00000000E+00
  0.00000000E+00  0.00000000E+00  0.00000000E+00
  0.00000000E+00  0.00000000E+00  0.00000000E+00
  0.00000000E+00  0.00000000E+00  0.00000000E+00
  0.00000000E+00  0.00000000E+00  0.00000000E+00
  0.00000000E+00  0.00000000E+00  0.00000000E+00
  0.00000000E+00  0.00000000E+00  0.00000000E+00
  0.00000000E+00  0.00000000E+00  0.00000000E+00
  0.00000000E+00  0.00000000E+00  0.00000000E+00
  0.00000000E+00  0.00000000E+00  0.00000000E+00
  0.00000000E+00  0.00000000E+00  0.00000000E+00
  0.00000000E+00  0.00000000E+00  0.00000000E+00
  0.00000000E+00  0.00000000E+00  0.00000000E+00
  0.00000000E+00  0.00000000E+00  0.00000000E+00
  0.00000000E+00  0.00000000E+00  0.00000000E+00
  0.00000000E+00  0.00000000E+00  0.00000000E+00
  0.00000000E+00  0.00000000E+00  0.00000000E+00
  0.00000000E+00  0.00000000E+00  0.00000000E+00
  0.00000000E+00  0.00000000E+00  0.00000000E+00
  0.00000000E+00  0.00000000E+00  0.00000000E+00
  0.00000000E+00  0.00000000E+00  0.00000000E+00
  0.00000000E+00  0.00000000E+00  0.00000000E+00
  0.00000000E+00  0.00000000E+00  0.00000000E+00
  0.00000000E+00  0.00000000E+00  0.00000000E+00
  0.00000000E+00  0.00000000E+00  0.00000000E+00
  0.00000000E+00  0.00000000E+00  0.00000000E+00
  0.00000000E+00  0.00000000E+00  0.00000000E+00
  0.00000000E+00  0.00000000E+00  0.00000000E+00
  0.00000000E+00  0.00000000E+00  0.00000000E+00
  0.00000000E+00  0.00000000E+00  0.00000000E+00
  0.00000000E+00  0.00000000E+00  0.00000000E+00
  0.00000000E+00  0.00000000E+00  0.00000000E+00
  0.00000000E+00  0.00000000E+00  0.00000000E+00
  0.00000000E+00  0.00000000E+00  0.00000000E+00
  0.00000000E+00  0.00000000E+00  0.00000000E+00
  0.00000000E+00  0.00000000E+00  0.00000000E+00
  0.00000000E+00  0.00000000E+00  0.00000000E+00
  0.00000000E+00  0.00000000E+00  0.00000000E+00
  0.00000000E+00  0.00000000E+00  0.00000000E+00
  0.00000000E+00  0.00000000E+00  0.00000000E+00
  0.00000000E+00  0.00000000E+00  0.00000000E+00
  0.00000000E+00  0.00000000E+00  0.00000000E+00
  0.00000000E+00  0.00000000E+00  0.00000000E+00
  0.00000000E+00  0.00000000E+00  0.00000000E+00
  0.00000000E+00  0.00000000E+00  0.00000000E+00
  0.00000000E+00  0.00000000E+00  0.00000000E+00
  0.00000000E+00  0.00000000E+00  0.00000000E+00
  0.00000000E+00  0.00000000E+00  0.00000000E+00
  0.00000000E+00  0.00000000E+00  0.00000000E+00
  0.00000000E+00  0.00000000E+00  0.00000000E+00
  0.00000000E+00  0.00000000E+00  0.00000000E+00
  0.00000000E+00  0.00000000E+00  0.00000000E+00
  0.00000000E+00  0.00000000E+00  0.00000000E+00
  0.00000000E+00  0.00000000E+00  0.00000000E+00
  0.00000000E+00  0.00000000E+00  0.00000000E+00
  0.00000000E+00  0.00000000E+00  0.00000000E+00
  0.00000000E+00  0.00000000E+00  0.00000000E+00
  0.00000000E+00  0.00000000E+00  0.00000000E+00
  0.00000000E+00  0.00000000E+00  0.00000000E+00
  0.00000000E+00  0.00000000E+00  0.00000000E+00
  0.00000000E+00  0.00000000E+00  0.00000000E+00
  0.00000000E+00  0.00000000E+00  0.00000000E+00
  0.00000000E+00  0.00000000E+00  0.00000000E+00
  0.00000000E+00  0.00000000E+00  0.00000000E+00
  0.00000000E+00  0.00000000E+00  0.00000000E+00
  0.00000000E+00  0.00000000E+00  0.00000000E+00
  0.00000000E+00  0.00000000E+00  0.00000000E+00
  0.00000000E+00  0.00000000E+00  0.00000000E+00
  0.00000000E+00  0.00000000E+00  0.00000000E+00
  0.00000000E+00  0.00000000E+00  0.00000000E+00
  0.00000000E+00  0.00000000E+00  0.00000000E+00
  0.00000000E+00  0.00000000E+00  0.00000000E+00
  0.00000000E+00  0.00000000E+00  0.00000000E+00
  0.00000000E+00  0.00000000E+00  0.00000000E+00
  0.00000000E+00  0.00000000E+00  0.00000000E+00
  0.00000000E+00  0.00000000E+00  0.00000000E+00
  0.00000000E+00  0.00000000E+00  0.00000000E+00
  0.00000000E+00  0.00000000E+00  0.00000000E+00
  0.00000000E+00  0.00000000E+00  0.00000000E+00
  0.00000000E+00  0.00000000E+00  0.00000000E+00
  0.00000000E+00  0.00000000E+00  0.00000000E+00
  0.00000000E+00  0.00000000E+00  0.00000000E+00
  0.00000000E+00  0.00000000E+00  0.00000000E+00
  0.00000000E+00  0.00000000E+00  0.00000000E+00
  0.00000000E+00  0.00000000E+00  0.00000000E+00
  0.00000000E+00  0.00000000E+00  0.00000000E+00
  0.00000000E+00  0.00000000E+00  0.00000000E+00
  0.00000000E+00  0.00000000E+00  0.00000000E+00
  0.00000000E+00  0.00000000E+00  0.00000000E+00
  0.00000000E+00  0.00000000E+00  0.00000000E+00
  0.00000000E+00  0.00000000E+00  0.00000000E+00
  0.00000000E+00  0.00000000E+00  0.00000000E+00
  0.00000000E+00  0.00000000E+00  0.00000000E+00
  0.00000000E+00  0.00000000E+00  0.00000000E+00
  0.00000000E+00  0.00000000E+00  0.00000000E+00
