x3                                      
   1.00000000000000     
    10.6822376251000009    0.0000000000000000    0.0000000000000000
    -0.0000014224000000   10.6822347641000004    0.0000000000000000
    -0.0000014224000000   -0.0000085346000000   10.6822347641000004
   N    C 
     1   214
Direct
  0.5494801012261967  0.3828139902840438  0.5494800447201121
  0.9582735339254592  0.7916075509853698  0.1250471403444624
  0.3752686566551526  0.5415987509736322  0.8748526423425897
  0.2916804211773146  0.1250144163672926  0.7914360105240600
  0.2926526702867035  0.6239886487711263  0.6247376814325767
  0.3752686535946589  0.7081866390712086  0.7082647351412658
  0.4623802281710986  0.4581884562953623  0.6248544823408255
  0.5421626355043607  0.5429780917251130  0.7096441122596058
  0.4586575450176288  0.6255349175764272  0.7922009165988438
  0.5417706264467502  0.7086448578519592  0.8753108690481646
  0.6249552035587633  0.7914465259988509  0.1252357801434043
  0.7082087780884050  0.8749001122871922  0.2084228921067155
  0.6249552027778811  0.9585697542047154  0.9581125168596193
  0.7082087814637946  0.0417568882180592  0.0415661096351887
  0.7916527334814193  0.7917719824508267  0.9584379799626951
  0.8749424454697038  0.8750403246463502  0.0417063261008956
  0.7915040093746927  0.9583538739377944  0.1250198823587450
  0.8748525941083797  0.0416561360221406  0.2083221259704267
  0.6249167006306408  0.7917409741471191  0.4583813323117550
  0.7082427527373850  0.8752282934051191  0.5416528009188631
  0.6248043782090054  0.9582844146171515  0.2915976006699715
  0.7085549815437925  0.0413286549663183  0.3752245900809448
  0.7915232460824764  0.7915471806068483  0.2917393829165284
  0.8749928963564076  0.8748651379988495  0.3750652296160322
  0.7916811454201754  0.9582625477200757  0.4582191386111175
  0.8745232475439086  0.0421034799990611  0.5415187584590421
  0.2926526600059766  0.4580716769589556  0.7906546632189353
  0.6250823585161835  0.7920044507672697  0.7917588061690444
  0.5417839254408257  0.7084023566272062  0.5417839197471581
  0.5409369818854700  0.5399968692521530  0.3766101227871413
  0.3750446810890015  0.2083786704431359  0.8747128747785123
  0.2930488165317296  0.2907172158987294  0.6230859735416386
  0.3766101237217800  0.3742709459010654  0.7066628991905084
  0.4573832355523686  0.1263828489502184  0.6230859702044360
  0.5409369878727014  0.2099441418943810  0.7066629144102096
  0.4584564528294947  0.2917904658983527  0.7911749169384372
  0.5417839294199336  0.3751179259776757  0.8750683692410604
  0.2915975899151333  0.4581383729611948  0.1249504138269038
  0.3752245797748744  0.5418889858776834  0.2079946359964175
  0.2917393856310506  0.6248572490122773  0.9582131743976807
  0.3750652284329633  0.7083268865611004  0.0415311507249539
  0.4583813362659850  0.4582507079679163  0.9584069724085383
  0.5416527969272774  0.5415767629417709  0.0418942964187090
  0.4582191288194809  0.6250151521406900  0.1249285488872885
  0.5415187590967797  0.7078572376601800  0.2087694896587438
  0.2930488240662430  0.4564199497151167  0.4573832358069787
  0.3766101314087809  0.5399968666543120  0.5409369700701417
  0.2916804263335103  0.6247699970750165  0.2916804293413632
  0.3750446876141519  0.7080468681273707  0.3750446828323714
  0.4573832340207981  0.4564199496169647  0.2930488253548901
  0.4584564554747963  0.6245088843800697  0.4584564561128532
  0.5449585145337885  0.2025592910063836  0.3692253014364208
  0.7083050589158991  0.8752846111675984  0.8749653910918539
  0.7079555255702153  0.0422094755110267  0.7079555220366093
  0.8753108842627343  0.3751046185000363  0.8753108823715056
  0.6245911188308496  0.4579251252527455  0.1255573497230087
  0.7079555291932881  0.5412895299816890  0.2088754657111783
  0.6250823623154439  0.6250928054561310  0.9586704490190279
  0.7083050651391745  0.7082993971463765  0.0419506151828865
  0.7917588016680862  0.4584163610220530  0.9586704588992924
  0.8749653973521607  0.5416390731959205  0.0419506142036269
  0.7915027080696379  0.6248367034876856  0.1253644172152168
  0.8748853773705864  0.7082193745368606  0.2084766029194978
  0.6248545128298726  0.4581884707853637  0.4623802189380211
  0.7096441273603333  0.5429781000518671  0.5421626330345573
  0.6247376811249504  0.6239886533027538  0.2926526693885065
  0.7082647376486576  0.7081866410692678  0.3752686517022119
  0.7906546704070551  0.4580716800117031  0.2926526579953195
  0.8748526488564623  0.5415987539066863  0.3752686538897159
  0.7922009194702606  0.6255349233020796  0.4586575472151839
  0.8753108728794431  0.7086448599902547  0.5417706245362315
  0.6255032216454234  0.4588372043179361  0.7924345377727965
  0.7086141347977605  0.5419481371333922  0.8755035792699446
  0.6255032161272125  0.6257685280005574  0.6255032139608270
  0.7086141329047216  0.7088375630630055  0.7086141313680234
  0.7924345406337631  0.4588372061578485  0.6255032216088953
  0.8755035839412290  0.5419481375883954  0.7086141334031612
  0.7922009343394466  0.2919915507531207  0.7922009370894936
  0.6245911184857377  0.9588913374956526  0.6245911225908227
  0.8748526570407041  0.2086026458399636  0.7082647459239310
  0.7096441438710287  0.3754966351683058  0.7096441368026200
  0.7917588010803931  0.7920044508276416  0.6250823621434053
  0.8749653924626054  0.8752846105081326  0.7083050575179132
  0.7915026994233428  0.9586984105265594  0.7915027043783767
  0.8748853734053027  0.0418106122089975  0.8748853726229308
  0.6248043743552903  0.1249315787255279  0.1249504150492313
  0.7085549868235212  0.2085585698094941  0.2079946389949135
  0.6249167023803682  0.2917153443919064  0.9584069676750290
  0.7082427512762204  0.3749867940677374  0.0418943005431528
  0.7915232549936551  0.1250733771741126  0.9582131790686325
  0.8749928972125655  0.2083992168726735  0.0415311494146461
  0.7916811491393487  0.2915531365722887  0.1249285445414769
  0.8745232366214337  0.3748527456991986  0.2087694685100352
  0.6230859678882709  0.1263828575903468  0.4573832455705830
  0.7066629328264896  0.2099441417191779  0.5409369829061843
  0.6230859710206201  0.2907172235119957  0.2930488271152694
  0.7066629198526470  0.3742709526013429  0.3766101145192248
  0.7914360089021323  0.1250144169430988  0.2916804250173361
  0.8747128846810772  0.2083786709042335  0.3750446764552458
  0.7911749251594515  0.2917904663003688  0.4584564539420569
  0.8750683776714770  0.3751179283752770  0.5417839258661451
  0.6247376793087268  0.1259866796660891  0.7906546764119046
  0.7082647456659907  0.2086026465014033  0.8748526525157431
  0.6248545300755362  0.2957142192495513  0.6248545142489947
  0.7906546788502363  0.1259866785875019  0.6247376825582532
  0.4586937953466950  0.1251563785577886  0.2918223857053683
  0.3692252806569004  0.3782924923019609  0.3692252723042715
  0.2918223586857782  0.2920278102258234  0.2918223620515058
  0.1249506415589353  0.1249524719546165  0.9581969678718332
  0.2082360372520538  0.2082545442712815  0.0414619788251318
  0.1244649113918679  0.2916481920496120  0.1244649148516091
  0.2073883424177107  0.3744677477711952  0.2073883411874606
  0.9581307507661104  0.1251176239387349  0.4582766027233249
  0.0416793770124928  0.2083526167643301  0.5415297738586400
  0.9581307499550320  0.2916106085429506  0.2917836266352986
  0.0416793818718675  0.3748637709460124  0.3750186199566783
  0.1250222121403761  0.1250583624465004  0.2917243631751182
  0.2085108165063814  0.2082146152253373  0.3748806208793104
  0.1253342052689363  0.2914769248288906  0.4581429214022539
  0.2090541666075886  0.3745223442857895  0.5411883709446349
  0.9582131732641351  0.1250733769651573  0.7915232596254829
  0.0415311491493691  0.2083992172005401  0.8749928964310992
  0.9584069645345090  0.2917153448482385  0.6249167066004889
  0.0418943034272323  0.3749867945421896  0.7082427507349979
  0.1249504048199853  0.1249315748171177  0.6248043786345033
  0.2079946309118610  0.2085585657748112  0.7085549883186503
  0.1249285374838596  0.2915531357002460  0.7916811532687019
  0.2087694726290120  0.3748527441286468  0.8745232302485854
  0.9581125110831293  0.4582891988404494  0.1252357649963391
  0.0415661110296236  0.5415427781097466  0.2084228926938488
  0.9584379692794273  0.6249867378602439  0.9584379724840723
  0.0414293772092506  0.3748695069768931  0.0414293741370263
  0.0417063255113097  0.7082764458558312  0.0417063233093066
  0.9583134854149098  0.2916906810817972  0.9583134904620316
  0.9581969635311560  0.1249524713811495  0.1249506451893773
  0.0416132808179965  0.8749472647943508  0.2083246695452152
  0.9582735356903371  0.9583811419715723  0.9582735398754519
  0.0416132714093392  0.0416586785102458  0.0416132651007195
  0.1250471355058517  0.7916075500035628  0.9582735368730132
  0.2083246725029133  0.8749472664117061  0.0416132765028977
  0.1249662212342094  0.9583002221078366  0.1249662244727662
  0.2082922420506052  0.0416262426819775  0.2082922400921721
  0.9583134826051578  0.7916474778971709  0.4583566895163448
  0.0414293820295722  0.8747633594651292  0.5415355165849959
  0.9581969690876139  0.9582846434266928  0.2916184750982487
  0.0414619960988014  0.0415700418572877  0.3749205406832865
  0.1249506448378110  0.7915309739335911  0.2916184820042184
  0.2082360411573361  0.8747959723672073  0.3749205438164373
  0.1244649214277295  0.9577989144962917  0.4583141848522012
  0.2073883454173483  0.0407223308144170  0.5411337593810268
  0.9584379754071660  0.7917719810792363  0.7916527366093830
  0.0417063286749323  0.8750403250138498  0.8749424428276527
  0.9581125110891865  0.9585697512026934  0.6249552068951830
  0.0415661085694076  0.0417568853878804  0.7082087816538865
  0.1252357758713361  0.7914465208451696  0.6249552066869015
  0.2084228919520399  0.8749001087473928  0.7082087778193280
  0.1250198783373584  0.9583538728999378  0.7915040105656549
  0.2083221282747732  0.0416561356478738  0.8748525909883155
  0.0414619829816637  0.2082545428960770  0.2082360327399415
  0.1252357640208339  0.4582891980036643  0.9581125112889630
  0.2084228953547134  0.5415427776651279  0.0415661087139750
  0.1250198791573736  0.6248379975997119  0.1250198822267793
  0.3748806179523715  0.0418448277848297  0.3748806228582564
  0.4582766086306070  0.7914647528290957  0.2917836379445150
  0.5415297848032812  0.8750133806353612  0.3750186265261145
  0.4581429184663124  0.9586682217618354  0.4581429242689746
  0.5411883757663177  0.0423881819734396  0.5411883733396382
  0.2917393805508458  0.7915471760541947  0.7915232476711606
  0.3750652308044196  0.8748651366630520  0.8749928943540191
  0.2915975921989711  0.9582844082815432  0.6248043823396434
  0.3752245874685310  0.0413286468506054  0.7085549826958053
  0.4583813301273716  0.7917409728087811  0.6249167021686445
  0.5416528021922618  0.8752282912902222  0.7082427508166651
  0.4582191337643126  0.9582625444935714  0.7916811506220152
  0.5415187597800152  0.0421034813285278  0.8745232430285538
  0.2917243591644123  0.1250583627618542  0.1250222173184574
  0.3748806198264489  0.2082146193655702  0.2085108178525683
  0.2917836250144577  0.2916106082677081  0.9581307510783493
  0.3750186215191560  0.3748637710307975  0.0416793778040016
  0.4582765988717440  0.1251176248363229  0.9581307539967756
  0.5415297751248178  0.2083526177289923  0.0416793752729676
  0.4581429154982493  0.2914769246949394  0.1253342097259775
  0.5411883747634627  0.3745223458935998  0.2090541649997642
  0.2918223577618783  0.1251563544260121  0.4586938075251965
  0.3692252712618669  0.2025592517506730  0.5449585140666167
  0.2917243580784286  0.9583562124861527  0.2917243624998839
  0.3750186270013445  0.8750133780634850  0.5415297834966717
  0.2917836350273954  0.7914647507720031  0.4582766122964403
  0.5411337588250020  0.0407223466399210  0.2073883602841148
  0.2083221361166281  0.7081865839143618  0.2083221335074124
  0.9584069708813538  0.4582507108918695  0.4583813385498264
  0.0418943009795718  0.5415767644928996  0.5416527959993881
  0.9582131731241700  0.6248572519952507  0.2917393878090004
  0.0415311518711661  0.7083268878400079  0.3750652279507291
  0.1249504100506735  0.4581383734682580  0.2915975943303611
  0.2079946364710433  0.5418889858692344  0.3752245789526731
  0.1249285446145662  0.6250151511400360  0.4582191327392705
  0.2087694921858380  0.7078572361762568  0.5415187563695508
  0.9586704546842244  0.4584163617464825  0.7917588066007160
  0.0419506186610707  0.5416390728502166  0.8749653950069676
  0.7919037506361152  0.6252377465983030  0.7919037544308939
  0.9586704445637705  0.6250928055608167  0.6250823666761235
  0.1255573470018122  0.4579251245679039  0.6245911224087795
  0.2088754714871334  0.5412895285286586  0.7079555241613169
  0.1253644150880728  0.6248367016066182  0.7915027110718041
  0.2084766040463267  0.7082193733889964  0.8748853754399004
  0.2916184779251690  0.7915309752811616  0.1249506485113925
  0.3749205441351103  0.8747959745521676  0.2082360402482084
  0.2916184713149136  0.9582846432968347  0.9581969748160898
  0.3749205424674138  0.0415700454248670  0.0414619942704619
  0.4583566848118903  0.7916474785745370  0.9583134886862771
  0.5415355189274954  0.8747633639242165  0.0414293834793895
  0.4583141785210835  0.9577989213378569  0.1244649319298099
  0.0419506190929135  0.7082993963644968  0.7083050632880361
  0.8751320856532292  0.7084660772869715  0.8751320835654984
 
  0.00000000E+00  0.00000000E+00  0.00000000E+00
  0.00000000E+00  0.00000000E+00  0.00000000E+00
  0.00000000E+00  0.00000000E+00  0.00000000E+00
  0.00000000E+00  0.00000000E+00  0.00000000E+00
  0.00000000E+00  0.00000000E+00  0.00000000E+00
  0.00000000E+00  0.00000000E+00  0.00000000E+00
  0.00000000E+00  0.00000000E+00  0.00000000E+00
  0.00000000E+00  0.00000000E+00  0.00000000E+00
  0.00000000E+00  0.00000000E+00  0.00000000E+00
  0.00000000E+00  0.00000000E+00  0.00000000E+00
  0.00000000E+00  0.00000000E+00  0.00000000E+00
  0.00000000E+00  0.00000000E+00  0.00000000E+00
  0.00000000E+00  0.00000000E+00  0.00000000E+00
  0.00000000E+00  0.00000000E+00  0.00000000E+00
  0.00000000E+00  0.00000000E+00  0.00000000E+00
  0.00000000E+00  0.00000000E+00  0.00000000E+00
  0.00000000E+00  0.00000000E+00  0.00000000E+00
  0.00000000E+00  0.00000000E+00  0.00000000E+00
  0.00000000E+00  0.00000000E+00  0.00000000E+00
  0.00000000E+00  0.00000000E+00  0.00000000E+00
  0.00000000E+00  0.00000000E+00  0.00000000E+00
  0.00000000E+00  0.00000000E+00  0.00000000E+00
  0.00000000E+00  0.00000000E+00  0.00000000E+00
  0.00000000E+00  0.00000000E+00  0.00000000E+00
  0.00000000E+00  0.00000000E+00  0.00000000E+00
  0.00000000E+00  0.00000000E+00  0.00000000E+00
  0.00000000E+00  0.00000000E+00  0.00000000E+00
  0.00000000E+00  0.00000000E+00  0.00000000E+00
  0.00000000E+00  0.00000000E+00  0.00000000E+00
  0.00000000E+00  0.00000000E+00  0.00000000E+00
  0.00000000E+00  0.00000000E+00  0.00000000E+00
  0.00000000E+00  0.00000000E+00  0.00000000E+00
  0.00000000E+00  0.00000000E+00  0.00000000E+00
  0.00000000E+00  0.00000000E+00  0.00000000E+00
  0.00000000E+00  0.00000000E+00  0.00000000E+00
  0.00000000E+00  0.00000000E+00  0.00000000E+00
  0.00000000E+00  0.00000000E+00  0.00000000E+00
  0.00000000E+00  0.00000000E+00  0.00000000E+00
  0.00000000E+00  0.00000000E+00  0.00000000E+00
  0.00000000E+00  0.00000000E+00  0.00000000E+00
  0.00000000E+00  0.00000000E+00  0.00000000E+00
  0.00000000E+00  0.00000000E+00  0.00000000E+00
  0.00000000E+00  0.00000000E+00  0.00000000E+00
  0.00000000E+00  0.00000000E+00  0.00000000E+00
  0.00000000E+00  0.00000000E+00  0.00000000E+00
  0.00000000E+00  0.00000000E+00  0.00000000E+00
  0.00000000E+00  0.00000000E+00  0.00000000E+00
  0.00000000E+00  0.00000000E+00  0.00000000E+00
  0.00000000E+00  0.00000000E+00  0.00000000E+00
  0.00000000E+00  0.00000000E+00  0.00000000E+00
  0.00000000E+00  0.00000000E+00  0.00000000E+00
  0.00000000E+00  0.00000000E+00  0.00000000E+00
  0.00000000E+00  0.00000000E+00  0.00000000E+00
  0.00000000E+00  0.00000000E+00  0.00000000E+00
  0.00000000E+00  0.00000000E+00  0.00000000E+00
  0.00000000E+00  0.00000000E+00  0.00000000E+00
  0.00000000E+00  0.00000000E+00  0.00000000E+00
  0.00000000E+00  0.00000000E+00  0.00000000E+00
  0.00000000E+00  0.00000000E+00  0.00000000E+00
  0.00000000E+00  0.00000000E+00  0.00000000E+00
  0.00000000E+00  0.00000000E+00  0.00000000E+00
  0.00000000E+00  0.00000000E+00  0.00000000E+00
  0.00000000E+00  0.00000000E+00  0.00000000E+00
  0.00000000E+00  0.00000000E+00  0.00000000E+00
  0.00000000E+00  0.00000000E+00  0.00000000E+00
  0.00000000E+00  0.00000000E+00  0.00000000E+00
  0.00000000E+00  0.00000000E+00  0.00000000E+00
  0.00000000E+00  0.00000000E+00  0.00000000E+00
  0.00000000E+00  0.00000000E+00  0.00000000E+00
  0.00000000E+00  0.00000000E+00  0.00000000E+00
  0.00000000E+00  0.00000000E+00  0.00000000E+00
  0.00000000E+00  0.00000000E+00  0.00000000E+00
  0.00000000E+00  0.00000000E+00  0.00000000E+00
  0.00000000E+00  0.00000000E+00  0.00000000E+00
  0.00000000E+00  0.00000000E+00  0.00000000E+00
  0.00000000E+00  0.00000000E+00  0.00000000E+00
  0.00000000E+00  0.00000000E+00  0.00000000E+00
  0.00000000E+00  0.00000000E+00  0.00000000E+00
  0.00000000E+00  0.00000000E+00  0.00000000E+00
  0.00000000E+00  0.00000000E+00  0.00000000E+00
  0.00000000E+00  0.00000000E+00  0.00000000E+00
  0.00000000E+00  0.00000000E+00  0.00000000E+00
  0.00000000E+00  0.00000000E+00  0.00000000E+00
  0.00000000E+00  0.00000000E+00  0.00000000E+00
  0.00000000E+00  0.00000000E+00  0.00000000E+00
  0.00000000E+00  0.00000000E+00  0.00000000E+00
  0.00000000E+00  0.00000000E+00  0.00000000E+00
  0.00000000E+00  0.00000000E+00  0.00000000E+00
  0.00000000E+00  0.00000000E+00  0.00000000E+00
  0.00000000E+00  0.00000000E+00  0.00000000E+00
  0.00000000E+00  0.00000000E+00  0.00000000E+00
  0.00000000E+00  0.00000000E+00  0.00000000E+00
  0.00000000E+00  0.00000000E+00  0.00000000E+00
  0.00000000E+00  0.00000000E+00  0.00000000E+00
  0.00000000E+00  0.00000000E+00  0.00000000E+00
  0.00000000E+00  0.00000000E+00  0.00000000E+00
  0.00000000E+00  0.00000000E+00  0.00000000E+00
  0.00000000E+00  0.00000000E+00  0.00000000E+00
  0.00000000E+00  0.00000000E+00  0.00000000E+00
  0.00000000E+00  0.00000000E+00  0.00000000E+00
  0.00000000E+00  0.00000000E+00  0.00000000E+00
  0.00000000E+00  0.00000000E+00  0.00000000E+00
  0.00000000E+00  0.00000000E+00  0.00000000E+00
  0.00000000E+00  0.00000000E+00  0.00000000E+00
  0.00000000E+00  0.00000000E+00  0.00000000E+00
  0.00000000E+00  0.00000000E+00  0.00000000E+00
  0.00000000E+00  0.00000000E+00  0.00000000E+00
  0.00000000E+00  0.00000000E+00  0.00000000E+00
  0.00000000E+00  0.00000000E+00  0.00000000E+00
  0.00000000E+00  0.00000000E+00  0.00000000E+00
  0.00000000E+00  0.00000000E+00  0.00000000E+00
  0.00000000E+00  0.00000000E+00  0.00000000E+00
  0.00000000E+00  0.00000000E+00  0.00000000E+00
  0.00000000E+00  0.00000000E+00  0.00000000E+00
  0.00000000E+00  0.00000000E+00  0.00000000E+00
  0.00000000E+00  0.00000000E+00  0.00000000E+00
  0.00000000E+00  0.00000000E+00  0.00000000E+00
  0.00000000E+00  0.00000000E+00  0.00000000E+00
  0.00000000E+00  0.00000000E+00  0.00000000E+00
  0.00000000E+00  0.00000000E+00  0.00000000E+00
  0.00000000E+00  0.00000000E+00  0.00000000E+00
  0.00000000E+00  0.00000000E+00  0.00000000E+00
  0.00000000E+00  0.00000000E+00  0.00000000E+00
  0.00000000E+00  0.00000000E+00  0.00000000E+00
  0.00000000E+00  0.00000000E+00  0.00000000E+00
  0.00000000E+00  0.00000000E+00  0.00000000E+00
  0.00000000E+00  0.00000000E+00  0.00000000E+00
  0.00000000E+00  0.00000000E+00  0.00000000E+00
  0.00000000E+00  0.00000000E+00  0.00000000E+00
  0.00000000E+00  0.00000000E+00  0.00000000E+00
  0.00000000E+00  0.00000000E+00  0.00000000E+00
  0.00000000E+00  0.00000000E+00  0.00000000E+00
  0.00000000E+00  0.00000000E+00  0.00000000E+00
  0.00000000E+00  0.00000000E+00  0.00000000E+00
  0.00000000E+00  0.00000000E+00  0.00000000E+00
  0.00000000E+00  0.00000000E+00  0.00000000E+00
  0.00000000E+00  0.00000000E+00  0.00000000E+00
  0.00000000E+00  0.00000000E+00  0.00000000E+00
  0.00000000E+00  0.00000000E+00  0.00000000E+00
  0.00000000E+00  0.00000000E+00  0.00000000E+00
  0.00000000E+00  0.00000000E+00  0.00000000E+00
  0.00000000E+00  0.00000000E+00  0.00000000E+00
  0.00000000E+00  0.00000000E+00  0.00000000E+00
  0.00000000E+00  0.00000000E+00  0.00000000E+00
  0.00000000E+00  0.00000000E+00  0.00000000E+00
  0.00000000E+00  0.00000000E+00  0.00000000E+00
  0.00000000E+00  0.00000000E+00  0.00000000E+00
  0.00000000E+00  0.00000000E+00  0.00000000E+00
  0.00000000E+00  0.00000000E+00  0.00000000E+00
  0.00000000E+00  0.00000000E+00  0.00000000E+00
  0.00000000E+00  0.00000000E+00  0.00000000E+00
  0.00000000E+00  0.00000000E+00  0.00000000E+00
  0.00000000E+00  0.00000000E+00  0.00000000E+00
  0.00000000E+00  0.00000000E+00  0.00000000E+00
  0.00000000E+00  0.00000000E+00  0.00000000E+00
  0.00000000E+00  0.00000000E+00  0.00000000E+00
  0.00000000E+00  0.00000000E+00  0.00000000E+00
  0.00000000E+00  0.00000000E+00  0.00000000E+00
  0.00000000E+00  0.00000000E+00  0.00000000E+00
  0.00000000E+00  0.00000000E+00  0.00000000E+00
  0.00000000E+00  0.00000000E+00  0.00000000E+00
  0.00000000E+00  0.00000000E+00  0.00000000E+00
  0.00000000E+00  0.00000000E+00  0.00000000E+00
  0.00000000E+00  0.00000000E+00  0.00000000E+00
  0.00000000E+00  0.00000000E+00  0.00000000E+00
  0.00000000E+00  0.00000000E+00  0.00000000E+00
  0.00000000E+00  0.00000000E+00  0.00000000E+00
  0.00000000E+00  0.00000000E+00  0.00000000E+00
  0.00000000E+00  0.00000000E+00  0.00000000E+00
  0.00000000E+00  0.00000000E+00  0.00000000E+00
  0.00000000E+00  0.00000000E+00  0.00000000E+00
  0.00000000E+00  0.00000000E+00  0.00000000E+00
  0.00000000E+00  0.00000000E+00  0.00000000E+00
  0.00000000E+00  0.00000000E+00  0.00000000E+00
  0.00000000E+00  0.00000000E+00  0.00000000E+00
  0.00000000E+00  0.00000000E+00  0.00000000E+00
  0.00000000E+00  0.00000000E+00  0.00000000E+00
  0.00000000E+00  0.00000000E+00  0.00000000E+00
  0.00000000E+00  0.00000000E+00  0.00000000E+00
  0.00000000E+00  0.00000000E+00  0.00000000E+00
  0.00000000E+00  0.00000000E+00  0.00000000E+00
  0.00000000E+00  0.00000000E+00  0.00000000E+00
  0.00000000E+00  0.00000000E+00  0.00000000E+00
  0.00000000E+00  0.00000000E+00  0.00000000E+00
  0.00000000E+00  0.00000000E+00  0.00000000E+00
  0.00000000E+00  0.00000000E+00  0.00000000E+00
  0.00000000E+00  0.00000000E+00  0.00000000E+00
  0.00000000E+00  0.00000000E+00  0.00000000E+00
  0.00000000E+00  0.00000000E+00  0.00000000E+00
  0.00000000E+00  0.00000000E+00  0.00000000E+00
  0.00000000E+00  0.00000000E+00  0.00000000E+00
  0.00000000E+00  0.00000000E+00  0.00000000E+00
  0.00000000E+00  0.00000000E+00  0.00000000E+00
  0.00000000E+00  0.00000000E+00  0.00000000E+00
  0.00000000E+00  0.00000000E+00  0.00000000E+00
  0.00000000E+00  0.00000000E+00  0.00000000E+00
  0.00000000E+00  0.00000000E+00  0.00000000E+00
  0.00000000E+00  0.00000000E+00  0.00000000E+00
  0.00000000E+00  0.00000000E+00  0.00000000E+00
  0.00000000E+00  0.00000000E+00  0.00000000E+00
  0.00000000E+00  0.00000000E+00  0.00000000E+00
  0.00000000E+00  0.00000000E+00  0.00000000E+00
  0.00000000E+00  0.00000000E+00  0.00000000E+00
  0.00000000E+00  0.00000000E+00  0.00000000E+00
  0.00000000E+00  0.00000000E+00  0.00000000E+00
  0.00000000E+00  0.00000000E+00  0.00000000E+00
  0.00000000E+00  0.00000000E+00  0.00000000E+00
  0.00000000E+00  0.00000000E+00  0.00000000E+00
  0.00000000E+00  0.00000000E+00  0.00000000E+00
  0.00000000E+00  0.00000000E+00  0.00000000E+00
  0.00000000E+00  0.00000000E+00  0.00000000E+00
  0.00000000E+00  0.00000000E+00  0.00000000E+00
  0.00000000E+00  0.00000000E+00  0.00000000E+00
  0.00000000E+00  0.00000000E+00  0.00000000E+00
  0.00000000E+00  0.00000000E+00  0.00000000E+00

