x3                                      
   1.00000000000000     
    10.6822376251000009    0.0000000000000000    0.0000000000000000
    -0.0000014224000000   10.6822347641000004    0.0000000000000000
    -0.0000014224000000   -0.0000085346000000   10.6822347641000004
   N    C 
     1   214
Direct
  0.5502491494380024  0.3835829428398299  0.5502491129529687
  0.9582097784111951  0.7915438518161722  0.1250750777721876
  0.3754421142775897  0.5415973675701267  0.8748690849853844
  0.2916647825425613  0.1249988712351779  0.7912776185619776
  0.2928496307990329  0.6239304873909504  0.6247136243059899
  0.3754420039755217  0.7082029164929153  0.7082631788926719
  0.4625938421845461  0.4583287518613588  0.6249951397850211
  0.5422724480238870  0.5431109003397836  0.7097769495838193
  0.4588640816153244  0.6256530905166997  0.7923190939926954
  0.5418991854013271  0.7087561903642907  0.8754220677906162
  0.6248792201292090  0.7913960001676799  0.1253420022130314
  0.7080798493785281  0.8748691082934315  0.2084838954999810
  0.6248792079563117  0.9586760885785210  0.9580618834158727
  0.7080799632521675  0.0418180856636283  0.0415349316330804
  0.7916544260165281  0.7918681368291942  0.9585337923652730
  0.8748818413515735  0.8750757622111465  0.0417414981706656
  0.7913512067013286  0.9583559013648966  0.1250216883187889
  0.8746813719284674  0.0416322934246338  0.2082981620739304
  0.6248914566489105  0.7918133918401296  0.4584546414923665
  0.7082096392951911  0.8753722346692854  0.5416808709762648
  0.6246520605543608  0.9582424347620702  0.2915661999354739
  0.7084092019531099  0.0413316195262823  0.3752440333801488
  0.7914352413898769  0.7915194276743023  0.2918319295249887
  0.8749190593617797  0.8748459505209496  0.3750918252400552
  0.7916137387815425  0.9583129641235573  0.4581822314084221
  0.8744152663703133  0.0422332680496140  0.5414698171857992
  0.2928495780056082  0.4580476823055903  0.7905969268676998
  0.6251618668662999  0.7922006537327348  0.7918250545793200
  0.5418681162952055  0.7084592679785402  0.5418681148511268
  0.5409469064351669  0.5399769620253778  0.3766955041784641
  0.3750454701930650  0.2083795582168833  0.8745659323619464
  0.2928807174399211  0.2907014880464232  0.6232304235274242
  0.3766954650335421  0.3742807713333818  0.7066437737976585
  0.4573674160015671  0.1262151094569077  0.6232299887815245
  0.5409467569235815  0.2100295844787041  0.7066434978224621
  0.4585211021505984  0.2918551568184498  0.7911239191288857
  0.5418682250342712  0.3752023540389970  0.8751255411355316
  0.2915663878144557  0.4579858924590283  0.1249085654336994
  0.3752443499041007  0.5417426800646297  0.2079978826881046
  0.2918320471157614  0.6247693659651716  0.9581855677077016
  0.3750919205787895  0.7082530101661746  0.0415121509007150
  0.4584547760448459  0.4582256401027891  0.9584795358917120
  0.5416811622714661  0.5415437835583532  0.0420382647765365
  0.4581824470028124  0.6249475258536634  0.1249791706903451
  0.5414698823112758  0.7077491796481183  0.2088992912121483
  0.2928811795725395  0.4565634898384161  0.4573677910422944
  0.3766955188841052  0.5399769431489148  0.5409468928531567
  0.2916651208171359  0.6246109168555378  0.2916651173411537
  0.3750455805557777  0.7078994388741293  0.3750455738241669
  0.4573678254345594  0.4565634889516303  0.2928811701280836
  0.4585211709880284  0.6244572822106846  0.4585211619478784
  0.5449233596388794  0.2023941006462167  0.3690598594478303
  0.7083149102771955  0.8754738302512308  0.8749886115066161
  0.7078754676105703  0.0424545832587739  0.7078754744560030
  0.8754220864292037  0.3752335158248030  0.8754220867210663
  0.6245197414429313  0.4578535711330147  0.1257644602608750
  0.7078757253825785  0.5412096071292325  0.2091204194651013
  0.6251619416397673  0.6251592822651872  0.9588665279816908
  0.7083150242327392  0.7083229150717187  0.0421396273964660
  0.7918252245348683  0.4584961829801202  0.9588664846531074
  0.8749887639492044  0.5416492939124637  0.0421396555221634
  0.7914552615386441  0.6247893751852303  0.1255828973519755
  0.8748264302670421  0.7081604882173380  0.2086080297682003
  0.6249951756957870  0.4583287790263242  0.4625938217048500
  0.7097769492025492  0.5431109131105814  0.5422724511885804
  0.6247136354811857  0.6239305024430095  0.2928496140953243
  0.7082631809756279  0.7082029262037395  0.3754419946722720
  0.7905969342953298  0.4580476944374610  0.2928495693115636
  0.8748690876581833  0.5415973710142694  0.3754421070991611
  0.7923190862440634  0.6256530949415264  0.4588640877492054
  0.8754220658575633  0.7087561913204610  0.5418991899755241
  0.6256731584356032  0.4590071994295570  0.7926034209804627
  0.7087709744910171  0.5421051867413738  0.8757224123607514
  0.6256730736106917  0.6259373175777014  0.6256730893557574
  0.7087708614482935  0.7090565021958142  0.7087708719895005
  0.7926034116411813  0.4590071974952679  0.6256731719928652
  0.8757224064895937  0.5421051883843404  0.7087709832504032
  0.7923190398955882  0.2921982588433423  0.7923190481843889
  0.6245194061480532  0.9590986531619947  0.6245194101376015
  0.8748689216950964  0.2087762598032441  0.7082632069660235
  0.7097768798200264  0.3756066496995842  0.7097768841283809
  0.7918250428128033  0.7922006507370867  0.6251618797759093
  0.8749886072917121  0.8754738273403433  0.7083149170387415
  0.7914550768042545  0.9589171837635462  0.7914550856064153
  0.8748262869664956  0.0419422721492282  0.8748262897545018
  0.6246521673037435  0.1249002800999577  0.1249083110455231
  0.7084095521767324  0.2085780981955168  0.2079974717013258
  0.6248916958781834  0.2917887726166200  0.9584793910320002
  0.7082099247754670  0.3750150933937206  0.0420381690253606
  0.7914353173751323  0.1251662385661874  0.9581852893564147
  0.8749190771591202  0.2084260548497241  0.0415118731075168
  0.7916140066068280  0.2915165085004858  0.1249788633787148
  0.8744155000517964  0.3748040660023122  0.2088992107776733
  0.6232299869941968  0.1262151282690240  0.4573673891829202
  0.7066435040893779  0.2100295882559493  0.5409467535220642
  0.6232304212017254  0.2907014939976733  0.2928807329895164
  0.7066437842621554  0.3742807861782254  0.3766954589701825
  0.7912776188644486  0.1249988810365537  0.2916647891867825
  0.8745659366024938  0.2083795631067957  0.3750454659989302
  0.7911239167234854  0.2918551646838807  0.4585211050787166
  0.8751255439272327  0.3752023539279605  0.5418682258358913
  0.6247135487106448  0.1261837066935527  0.7905966591475533
  0.7082632024236730  0.2087762578958703  0.8748689258456537
  0.6249951526352646  0.2959277413801331  0.6249951314827555
  0.7905966523130274  0.1261837110128852  0.6247135481763380
  0.4585866507470442  0.1248756179402406  0.2915415388421039
  0.3690604063316698  0.3782559753538379  0.3690603775983448
  0.2915416606000747  0.2919202135494601  0.2915416516784859
  0.1248934169401537  0.1248935138732108  0.9580567868981404
  0.2081565979692925  0.2081600739796485  0.0413122082858024
  0.1243225616164239  0.2915425105330485  0.1243225546258770
  0.2073062285542875  0.3742735555275516  0.2073062196251172
  0.9580229326348970  0.1251417361124396  0.4581993094331480
  0.0416797009793513  0.2083502428654000  0.5414216879949834
  0.9580230900398377  0.2915333437977239  0.2918077779773753
  0.0416798273391166  0.3747555381932131  0.3750163983994810
  0.1249026506539508  0.1249562121892467  0.2916221756028179
  0.2084976553823878  0.2081097125233242  0.3747758883434784
  0.1253809891114130  0.2913793877804309  0.4580456983613885
  0.2092187068015150  0.3743957263799729  0.5410624595830811
  0.9581852844357854  0.1251662368808866  0.7914353263156215
  0.0415118713110303  0.2084260519591297  0.8749190785991701
  0.9584793843831392  0.2917887718140477  0.6248917016141462
  0.0420381713236537  0.3750150891076203  0.7082099266155097
  0.1249082910425017  0.1249002654465343  0.6246521738198112
  0.2079974617812965  0.2085780909398522  0.7084095522286944
  0.1249788572717634  0.2915165022455071  0.7916140120656365
  0.2088992215912100  0.3748040583261059  0.8744154965275754
  0.9580621248167276  0.4582134239118716  0.1253420035978081
  0.0415352169080450  0.5414139706827825  0.2084841191479470
  0.9585339166682019  0.6249887021844671  0.9585339171851786
  0.0413853486377036  0.3748131810446012  0.0413853437131166
  0.0417416553849961  0.7082160038566059  0.0417416512504616
  0.9583012563030593  0.2917047746932298  0.9583012622777360
  0.9580567880916036  0.1248935157327153  0.1248934149721563
  0.0415280361314316  0.8748619359596006  0.2082845963813611
  0.9582096744750430  0.9584093671103489  0.9582096790514782
  0.0415279301884155  0.0416186862049415  0.0415279246145559
  0.1250750747491765  0.7915438509059882  0.9582097810971462
  0.2082846030290639  0.8748619341415989  0.0415280288082940
  0.1248755177750738  0.9582096017512356  0.1248755181177899
  0.2081865229128113  0.0415205291623764  0.2081865146304480
  0.9583012474329706  0.7916352216215046  0.4583704724262319
  0.0413852773817069  0.8747193359216254  0.5414788489553573
  0.9580567721640847  0.9582274979052059  0.2915593138326926
  0.0413121877054863  0.0414905241837076  0.3748259100252938
  0.1248936564327110  0.7913906511583377  0.2915594435978619
  0.2081566462229176  0.8746461584458274  0.3748259844257191
  0.1243225636506153  0.9576565467830420  0.4582084423036150
  0.2073059970856974  0.0406401091797264  0.5409397573155630
  0.9585337847420234  0.7918681291742899  0.7916544343309653
  0.0417415007662925  0.8750757585520219  0.8748818408197039
  0.9580618717014886  0.9586760833828620  0.6248792177620146
  0.0415349281218909  0.0418180801492980  0.7080799708980479
  0.1253420010499298  0.7913959880880199  0.6248792269614398
  0.2084838997368550  0.8748690964785553  0.7080798590677091
  0.1250216861568418  0.9583558965214252  0.7913512160750784
  0.2082981670978938  0.0416322909550999  0.8746813661691561
  0.0413122171357543  0.2081600757973803  0.2081565954795224
  0.1253420068960693  0.4582134212009308  0.9580621269829379
  0.2084841249858016  0.5414139716506341  0.0415352119533097
  0.1250219030253845  0.6246852235011744  0.1250219021828372
  0.3747758116444686  0.0418318638923978  0.3747758180195220
  0.4581992638881118  0.7913567948517013  0.2918078233740644
  0.5414215241052247  0.8750137234460382  0.3750162129075250
  0.4580454932127793  0.9587151695781770  0.4580454937467451
  0.5410620279546450  0.0425528083011599  0.5410620188208952
  0.2918319304359613  0.7915194195961703  0.7914352476475273
  0.3750918274941384  0.8748459507462840  0.8749190555306541
  0.2915661967305709  0.9582424197717430  0.6246520649247955
  0.3752440369875458  0.0413316092191138  0.7084091994476012
  0.4584546420575251  0.7918133919473647  0.6248914586815886
  0.5416808649479705  0.8753722375381585  0.7082096385027725
  0.4581822268715570  0.9583129637415695  0.7916137422362652
  0.5414698189565641  0.0422332682178279  0.8744152706987762
  0.2916221729419703  0.1249562087593503  0.1249026540888707
  0.3747758853119763  0.2081097120568458  0.2084976597752259
  0.2918077840458011  0.2915333405867102  0.9580230885060459
  0.3750164031861161  0.3747555366287685  0.0416798193300991
  0.4581993111923026  0.1251417359322886  0.9580229377874190
  0.5414216890907326  0.2083502467606451  0.0416796987913202
  0.4580456989638009  0.2913793904634616  0.1253809947765916
  0.5410624763371885  0.3743957299459097  0.2092186952892732
  0.2915415078356816  0.1248755792119240  0.4585866701695309
  0.3690597984457398  0.2023940163255133  0.5449234050976344
  0.2916222325920259  0.9582367715415074  0.2916222337314167
  0.3750162118569094  0.8750137179585877  0.5414215243356466
  0.2918078270295865  0.7913567918520528  0.4581992579390217
  0.5409397542322623  0.0406401387417148  0.2073060161627893
  0.2082984513246373  0.7080150938338861  0.2082984431502908
  0.9584795325982256  0.4582256428817217  0.4584547771589911
  0.0420382660695822  0.5415437858124363  0.5416811636718748
  0.9581855665375016  0.6247693675742099  0.2918320473580138
  0.0415121497469286  0.7082530131620430  0.3750919161294206
  0.1249085624651727  0.4579858950637785  0.2915663781050384
  0.2079978838916787  0.5417426825324512  0.3752443394825988
  0.1249791659556863  0.6249475264023516  0.4581824446580285
  0.2088993031216191  0.7077491690403690  0.5414698736148793
  0.9588664765279802  0.4584961783696713  0.7918252343979404
  0.0421396600867681  0.5416492923210896  0.8749887634519808
  0.7920878535127684  0.6254220661342700  0.7920878632608819
  0.9588665169371708  0.6251592791329230  0.6251619536590169
  0.1257644685051886  0.4578535656970928  0.6245197406814853
  0.2091204320313906  0.5412095944458528  0.7078757200072374
  0.1255829014642202  0.6247893670689209  0.7914552627925460
  0.2086080360333895  0.7081604821591299  0.8748264269095287
  0.2915594466930429  0.7913906548972349  0.1248936547300374
  0.3748259919895816  0.8746461613392924  0.2081566400529482
  0.2915593172444915  0.9582274967629161  0.9580567736728511
  0.3748259182349969  0.0414905189529833  0.0413121818776432
  0.4583704709777194  0.7916352252786183  0.9583012554213681
  0.5414788543265132  0.8747193465140839  0.0413852819285196
  0.4582084481412707  0.9576565660890353  0.1243225772684582
  0.0421396296346828  0.7083229087788183  0.7083150293740417
  0.8752601438013770  0.7085944462164093  0.8752601458001834
 
  0.00000000E+00  0.00000000E+00  0.00000000E+00
  0.00000000E+00  0.00000000E+00  0.00000000E+00
  0.00000000E+00  0.00000000E+00  0.00000000E+00
  0.00000000E+00  0.00000000E+00  0.00000000E+00
  0.00000000E+00  0.00000000E+00  0.00000000E+00
  0.00000000E+00  0.00000000E+00  0.00000000E+00
  0.00000000E+00  0.00000000E+00  0.00000000E+00
  0.00000000E+00  0.00000000E+00  0.00000000E+00
  0.00000000E+00  0.00000000E+00  0.00000000E+00
  0.00000000E+00  0.00000000E+00  0.00000000E+00
  0.00000000E+00  0.00000000E+00  0.00000000E+00
  0.00000000E+00  0.00000000E+00  0.00000000E+00
  0.00000000E+00  0.00000000E+00  0.00000000E+00
  0.00000000E+00  0.00000000E+00  0.00000000E+00
  0.00000000E+00  0.00000000E+00  0.00000000E+00
  0.00000000E+00  0.00000000E+00  0.00000000E+00
  0.00000000E+00  0.00000000E+00  0.00000000E+00
  0.00000000E+00  0.00000000E+00  0.00000000E+00
  0.00000000E+00  0.00000000E+00  0.00000000E+00
  0.00000000E+00  0.00000000E+00  0.00000000E+00
  0.00000000E+00  0.00000000E+00  0.00000000E+00
  0.00000000E+00  0.00000000E+00  0.00000000E+00
  0.00000000E+00  0.00000000E+00  0.00000000E+00
  0.00000000E+00  0.00000000E+00  0.00000000E+00
  0.00000000E+00  0.00000000E+00  0.00000000E+00
  0.00000000E+00  0.00000000E+00  0.00000000E+00
  0.00000000E+00  0.00000000E+00  0.00000000E+00
  0.00000000E+00  0.00000000E+00  0.00000000E+00
  0.00000000E+00  0.00000000E+00  0.00000000E+00
  0.00000000E+00  0.00000000E+00  0.00000000E+00
  0.00000000E+00  0.00000000E+00  0.00000000E+00
  0.00000000E+00  0.00000000E+00  0.00000000E+00
  0.00000000E+00  0.00000000E+00  0.00000000E+00
  0.00000000E+00  0.00000000E+00  0.00000000E+00
  0.00000000E+00  0.00000000E+00  0.00000000E+00
  0.00000000E+00  0.00000000E+00  0.00000000E+00
  0.00000000E+00  0.00000000E+00  0.00000000E+00
  0.00000000E+00  0.00000000E+00  0.00000000E+00
  0.00000000E+00  0.00000000E+00  0.00000000E+00
  0.00000000E+00  0.00000000E+00  0.00000000E+00
  0.00000000E+00  0.00000000E+00  0.00000000E+00
  0.00000000E+00  0.00000000E+00  0.00000000E+00
  0.00000000E+00  0.00000000E+00  0.00000000E+00
  0.00000000E+00  0.00000000E+00  0.00000000E+00
  0.00000000E+00  0.00000000E+00  0.00000000E+00
  0.00000000E+00  0.00000000E+00  0.00000000E+00
  0.00000000E+00  0.00000000E+00  0.00000000E+00
  0.00000000E+00  0.00000000E+00  0.00000000E+00
  0.00000000E+00  0.00000000E+00  0.00000000E+00
  0.00000000E+00  0.00000000E+00  0.00000000E+00
  0.00000000E+00  0.00000000E+00  0.00000000E+00
  0.00000000E+00  0.00000000E+00  0.00000000E+00
  0.00000000E+00  0.00000000E+00  0.00000000E+00
  0.00000000E+00  0.00000000E+00  0.00000000E+00
  0.00000000E+00  0.00000000E+00  0.00000000E+00
  0.00000000E+00  0.00000000E+00  0.00000000E+00
  0.00000000E+00  0.00000000E+00  0.00000000E+00
  0.00000000E+00  0.00000000E+00  0.00000000E+00
  0.00000000E+00  0.00000000E+00  0.00000000E+00
  0.00000000E+00  0.00000000E+00  0.00000000E+00
  0.00000000E+00  0.00000000E+00  0.00000000E+00
  0.00000000E+00  0.00000000E+00  0.00000000E+00
  0.00000000E+00  0.00000000E+00  0.00000000E+00
  0.00000000E+00  0.00000000E+00  0.00000000E+00
  0.00000000E+00  0.00000000E+00  0.00000000E+00
  0.00000000E+00  0.00000000E+00  0.00000000E+00
  0.00000000E+00  0.00000000E+00  0.00000000E+00
  0.00000000E+00  0.00000000E+00  0.00000000E+00
  0.00000000E+00  0.00000000E+00  0.00000000E+00
  0.00000000E+00  0.00000000E+00  0.00000000E+00
  0.00000000E+00  0.00000000E+00  0.00000000E+00
  0.00000000E+00  0.00000000E+00  0.00000000E+00
  0.00000000E+00  0.00000000E+00  0.00000000E+00
  0.00000000E+00  0.00000000E+00  0.00000000E+00
  0.00000000E+00  0.00000000E+00  0.00000000E+00
  0.00000000E+00  0.00000000E+00  0.00000000E+00
  0.00000000E+00  0.00000000E+00  0.00000000E+00
  0.00000000E+00  0.00000000E+00  0.00000000E+00
  0.00000000E+00  0.00000000E+00  0.00000000E+00
  0.00000000E+00  0.00000000E+00  0.00000000E+00
  0.00000000E+00  0.00000000E+00  0.00000000E+00
  0.00000000E+00  0.00000000E+00  0.00000000E+00
  0.00000000E+00  0.00000000E+00  0.00000000E+00
  0.00000000E+00  0.00000000E+00  0.00000000E+00
  0.00000000E+00  0.00000000E+00  0.00000000E+00
  0.00000000E+00  0.00000000E+00  0.00000000E+00
  0.00000000E+00  0.00000000E+00  0.00000000E+00
  0.00000000E+00  0.00000000E+00  0.00000000E+00
  0.00000000E+00  0.00000000E+00  0.00000000E+00
  0.00000000E+00  0.00000000E+00  0.00000000E+00
  0.00000000E+00  0.00000000E+00  0.00000000E+00
  0.00000000E+00  0.00000000E+00  0.00000000E+00
  0.00000000E+00  0.00000000E+00  0.00000000E+00
  0.00000000E+00  0.00000000E+00  0.00000000E+00
  0.00000000E+00  0.00000000E+00  0.00000000E+00
  0.00000000E+00  0.00000000E+00  0.00000000E+00
  0.00000000E+00  0.00000000E+00  0.00000000E+00
  0.00000000E+00  0.00000000E+00  0.00000000E+00
  0.00000000E+00  0.00000000E+00  0.00000000E+00
  0.00000000E+00  0.00000000E+00  0.00000000E+00
  0.00000000E+00  0.00000000E+00  0.00000000E+00
  0.00000000E+00  0.00000000E+00  0.00000000E+00
  0.00000000E+00  0.00000000E+00  0.00000000E+00
  0.00000000E+00  0.00000000E+00  0.00000000E+00
  0.00000000E+00  0.00000000E+00  0.00000000E+00
  0.00000000E+00  0.00000000E+00  0.00000000E+00
  0.00000000E+00  0.00000000E+00  0.00000000E+00
  0.00000000E+00  0.00000000E+00  0.00000000E+00
  0.00000000E+00  0.00000000E+00  0.00000000E+00
  0.00000000E+00  0.00000000E+00  0.00000000E+00
  0.00000000E+00  0.00000000E+00  0.00000000E+00
  0.00000000E+00  0.00000000E+00  0.00000000E+00
  0.00000000E+00  0.00000000E+00  0.00000000E+00
  0.00000000E+00  0.00000000E+00  0.00000000E+00
  0.00000000E+00  0.00000000E+00  0.00000000E+00
  0.00000000E+00  0.00000000E+00  0.00000000E+00
  0.00000000E+00  0.00000000E+00  0.00000000E+00
  0.00000000E+00  0.00000000E+00  0.00000000E+00
  0.00000000E+00  0.00000000E+00  0.00000000E+00
  0.00000000E+00  0.00000000E+00  0.00000000E+00
  0.00000000E+00  0.00000000E+00  0.00000000E+00
  0.00000000E+00  0.00000000E+00  0.00000000E+00
  0.00000000E+00  0.00000000E+00  0.00000000E+00
  0.00000000E+00  0.00000000E+00  0.00000000E+00
  0.00000000E+00  0.00000000E+00  0.00000000E+00
  0.00000000E+00  0.00000000E+00  0.00000000E+00
  0.00000000E+00  0.00000000E+00  0.00000000E+00
  0.00000000E+00  0.00000000E+00  0.00000000E+00
  0.00000000E+00  0.00000000E+00  0.00000000E+00
  0.00000000E+00  0.00000000E+00  0.00000000E+00
  0.00000000E+00  0.00000000E+00  0.00000000E+00
  0.00000000E+00  0.00000000E+00  0.00000000E+00
  0.00000000E+00  0.00000000E+00  0.00000000E+00
  0.00000000E+00  0.00000000E+00  0.00000000E+00
  0.00000000E+00  0.00000000E+00  0.00000000E+00
  0.00000000E+00  0.00000000E+00  0.00000000E+00
  0.00000000E+00  0.00000000E+00  0.00000000E+00
  0.00000000E+00  0.00000000E+00  0.00000000E+00
  0.00000000E+00  0.00000000E+00  0.00000000E+00
  0.00000000E+00  0.00000000E+00  0.00000000E+00
  0.00000000E+00  0.00000000E+00  0.00000000E+00
  0.00000000E+00  0.00000000E+00  0.00000000E+00
  0.00000000E+00  0.00000000E+00  0.00000000E+00
  0.00000000E+00  0.00000000E+00  0.00000000E+00
  0.00000000E+00  0.00000000E+00  0.00000000E+00
  0.00000000E+00  0.00000000E+00  0.00000000E+00
  0.00000000E+00  0.00000000E+00  0.00000000E+00
  0.00000000E+00  0.00000000E+00  0.00000000E+00
  0.00000000E+00  0.00000000E+00  0.00000000E+00
  0.00000000E+00  0.00000000E+00  0.00000000E+00
  0.00000000E+00  0.00000000E+00  0.00000000E+00
  0.00000000E+00  0.00000000E+00  0.00000000E+00
  0.00000000E+00  0.00000000E+00  0.00000000E+00
  0.00000000E+00  0.00000000E+00  0.00000000E+00
  0.00000000E+00  0.00000000E+00  0.00000000E+00
  0.00000000E+00  0.00000000E+00  0.00000000E+00
  0.00000000E+00  0.00000000E+00  0.00000000E+00
  0.00000000E+00  0.00000000E+00  0.00000000E+00
  0.00000000E+00  0.00000000E+00  0.00000000E+00
  0.00000000E+00  0.00000000E+00  0.00000000E+00
  0.00000000E+00  0.00000000E+00  0.00000000E+00
  0.00000000E+00  0.00000000E+00  0.00000000E+00
  0.00000000E+00  0.00000000E+00  0.00000000E+00
  0.00000000E+00  0.00000000E+00  0.00000000E+00
  0.00000000E+00  0.00000000E+00  0.00000000E+00
  0.00000000E+00  0.00000000E+00  0.00000000E+00
  0.00000000E+00  0.00000000E+00  0.00000000E+00
  0.00000000E+00  0.00000000E+00  0.00000000E+00
  0.00000000E+00  0.00000000E+00  0.00000000E+00
  0.00000000E+00  0.00000000E+00  0.00000000E+00
  0.00000000E+00  0.00000000E+00  0.00000000E+00
  0.00000000E+00  0.00000000E+00  0.00000000E+00
  0.00000000E+00  0.00000000E+00  0.00000000E+00
  0.00000000E+00  0.00000000E+00  0.00000000E+00
  0.00000000E+00  0.00000000E+00  0.00000000E+00
  0.00000000E+00  0.00000000E+00  0.00000000E+00
  0.00000000E+00  0.00000000E+00  0.00000000E+00
  0.00000000E+00  0.00000000E+00  0.00000000E+00
  0.00000000E+00  0.00000000E+00  0.00000000E+00
  0.00000000E+00  0.00000000E+00  0.00000000E+00
  0.00000000E+00  0.00000000E+00  0.00000000E+00
  0.00000000E+00  0.00000000E+00  0.00000000E+00
  0.00000000E+00  0.00000000E+00  0.00000000E+00
  0.00000000E+00  0.00000000E+00  0.00000000E+00
  0.00000000E+00  0.00000000E+00  0.00000000E+00
  0.00000000E+00  0.00000000E+00  0.00000000E+00
  0.00000000E+00  0.00000000E+00  0.00000000E+00
  0.00000000E+00  0.00000000E+00  0.00000000E+00
  0.00000000E+00  0.00000000E+00  0.00000000E+00
  0.00000000E+00  0.00000000E+00  0.00000000E+00
  0.00000000E+00  0.00000000E+00  0.00000000E+00
  0.00000000E+00  0.00000000E+00  0.00000000E+00
  0.00000000E+00  0.00000000E+00  0.00000000E+00
  0.00000000E+00  0.00000000E+00  0.00000000E+00
  0.00000000E+00  0.00000000E+00  0.00000000E+00
  0.00000000E+00  0.00000000E+00  0.00000000E+00
  0.00000000E+00  0.00000000E+00  0.00000000E+00
  0.00000000E+00  0.00000000E+00  0.00000000E+00
  0.00000000E+00  0.00000000E+00  0.00000000E+00
  0.00000000E+00  0.00000000E+00  0.00000000E+00
  0.00000000E+00  0.00000000E+00  0.00000000E+00
  0.00000000E+00  0.00000000E+00  0.00000000E+00
  0.00000000E+00  0.00000000E+00  0.00000000E+00
  0.00000000E+00  0.00000000E+00  0.00000000E+00
  0.00000000E+00  0.00000000E+00  0.00000000E+00
  0.00000000E+00  0.00000000E+00  0.00000000E+00
  0.00000000E+00  0.00000000E+00  0.00000000E+00
  0.00000000E+00  0.00000000E+00  0.00000000E+00
  0.00000000E+00  0.00000000E+00  0.00000000E+00
  0.00000000E+00  0.00000000E+00  0.00000000E+00
  0.00000000E+00  0.00000000E+00  0.00000000E+00
  0.00000000E+00  0.00000000E+00  0.00000000E+00
  0.00000000E+00  0.00000000E+00  0.00000000E+00
  0.00000000E+00  0.00000000E+00  0.00000000E+00
  0.00000000E+00  0.00000000E+00  0.00000000E+00
